     Program PWSCF v.7.4.1 starts on 14Aug2025 at 14:31: 1

     Waiting for input...
     Reading input from standard input

     Current dimensions of program PWSCF are:
     Max number of different atomic species (ntypx) = 10
     Max number of k-points (npk) =  40000
     Max angular momentum in pseudopotentials (lmaxx) =  4
Error reading attribute index: expected integer, found *
Error reading attribute index: expected integer, found *

     IMPORTANT: XC functional enforced from input :
     Exchange-correlation= PBE
                           (   1   4   3   4   0   0   0)
     Any further DFT definition will be discarded
     Please, verify this is what you really want

     Message from routine setup:
     no reason to have ecutrho>4*ecutwfc

     R & G space division:  proc/nbgrp/npool/nimage =      24
     Subspace diagonalization in iterative solution of the eigenvalue problem:
     a serial algorithm will be used

     Using Slab Decomposition

     bravais-lattice index     =            0
     lattice parameter (alat)  =       8.2271  a.u.
     unit-cell volume          =    2430.6623 (a.u.)^3
     number of atoms/cell      =            5
     number of atomic types    =            2
     number of electrons       =        78.00
     number of Kohn-Sham states=           78
     kinetic-energy cutoff     =      50.0000  Ry
     charge density cutoff     =     500.0000  Ry
     scf convergence threshold =      1.0E-07
     mixing beta               =       0.7000
     number of iterations used =            8  plain     mixing
     Exchange-correlation= PBE
                           (   1   4   3   4   0   0   0)
     Non magnetic calculation with spin-orbit

     celldm(1)=   8.227090  celldm(2)=   0.000000  celldm(3)=   0.000000
     celldm(4)=   0.000000  celldm(5)=   0.000000  celldm(6)=   0.000000

     crystal axes: (cart. coord. in units of alat)
               a(1) = (   1.000000   0.000000   0.000000 )
               a(2) = (  -0.495050   0.857443   0.000000 )
               a(3) = (   0.000000   0.000000   5.090739 )

     reciprocal axes: (cart. coord. in units 2 pi/alat)
               b(1) = (  1.000000  0.577356 -0.000000 )
               b(2) = (  0.000000  1.166259  0.000000 )
               b(3) = (  0.000000 -0.000000  0.196435 )

     PseudoPot. # 1 for Sb read from file:
     /zfs-home/202401017n1/pseudos/Sb_ONCV_PBE_FR-1.1.upf
     MD5 check sum: 7dc1726f2158e3c51e4807d42b9c5c65
     Pseudo is Norm-conserving, Zval = 15.0
     Generated using ONCVPSP code by D. R. Hamann
     Using radial grid of  602 points, 10 beta functions with:
                l(1) =   0
                l(2) =   0
                l(3) =   1
                l(4) =   1
                l(5) =   1
                l(6) =   1
                l(7) =   2
                l(8) =   2
                l(9) =   2
               l(10) =   2

     PseudoPot. # 2 for Te read from file:
     /zfs-home/202401017n1/pseudos/Te_ONCV_PBE_FR-1.1.upf
     MD5 check sum: c6e17480449037a9a9d16e6377b5c7c4
     Pseudo is Norm-conserving, Zval = 16.0
     Generated using ONCVPSP code by D. R. Hamann
     Using radial grid of  602 points, 10 beta functions with:
                l(1) =   0
                l(2) =   0
                l(3) =   1
                l(4) =   1
                l(5) =   1
                l(6) =   1
                l(7) =   2
                l(8) =   2
                l(9) =   2
               l(10) =   2

     atomic species   valence    mass     pseudopotential
     Sb               15.00   121.76000     Sb( 1.00)
     Te               16.00   127.60000     Te( 1.00)

     No symmetry found

                                    s                        frac. trans.

      isym =  1     identity

 cryst.   s( 1) = (     1          0          0      )
                  (     0          1          0      )
                  (     0          0          1      )

 cart.    s( 1) = (  1.0000000  0.0000000  0.0000000 )
                  (  0.0000000  1.0000000  0.0000000 )
                  (  0.0000000  0.0000000  1.0000000 )

   Cartesian axes

     site n.     atom                  positions (alat units)
         1        Sb     tau(   1) = (   0.5788554   0.4207610   3.0040749  )
         2        Te     tau(   2) = (   0.5752577   0.4138624   1.6972962  )
         3        Sb     tau(   3) = (   0.0743102   0.1298379   2.0866212  )
         4        Te     tau(   4) = (   0.0782247   0.1361538   3.3933943  )
         5        Te     tau(   5) = (   0.0792404   0.7036244   2.5453648  )

   Crystallographic axes

     site n.     atom                  positions (cryst. coord.)
         1        Sb     tau(   1) = (  0.8217842  0.4907162  0.5901058  )
         2        Te     tau(   2) = (  0.8142035  0.4826706  0.3334086  )
         3        Sb     tau(   3) = (  0.1492728  0.1514246  0.4098857  )
         4        Te     tau(   4) = (  0.1568340  0.1587906  0.6665818  )
         5        Te     tau(   5) = (  0.4854821  0.8206082  0.4999990  )

     number of k points=   221
                       cart. coord. in units 2pi/alat
        k(    1) = (   0.0000000   0.0000000   0.0000000), wk =   0.0022676
        k(    2) = (   0.0000000   0.0555361   0.0000000), wk =   0.0045351
        k(    3) = (   0.0000000   0.1110723   0.0000000), wk =   0.0045351
        k(    4) = (   0.0000000   0.1666084   0.0000000), wk =   0.0045351
        k(    5) = (   0.0000000   0.2221445   0.0000000), wk =   0.0045351
        k(    6) = (   0.0000000   0.2776807   0.0000000), wk =   0.0045351
        k(    7) = (   0.0000000   0.3332168   0.0000000), wk =   0.0045351
        k(    8) = (   0.0000000   0.3887529   0.0000000), wk =   0.0045351
        k(    9) = (   0.0000000   0.4442891   0.0000000), wk =   0.0045351
        k(   10) = (   0.0000000   0.4998252   0.0000000), wk =   0.0045351
        k(   11) = (   0.0000000   0.5553613   0.0000000), wk =   0.0045351
        k(   12) = (   0.0476190   0.0274931   0.0000000), wk =   0.0045351
        k(   13) = (   0.0476190   0.0830293   0.0000000), wk =   0.0045351
        k(   14) = (   0.0476190   0.1385654   0.0000000), wk =   0.0045351
        k(   15) = (   0.0476190   0.1941015   0.0000000), wk =   0.0045351
        k(   16) = (   0.0476190   0.2496377   0.0000000), wk =   0.0045351
        k(   17) = (   0.0476190   0.3051738   0.0000000), wk =   0.0045351
        k(   18) = (   0.0476190   0.3607099   0.0000000), wk =   0.0045351
        k(   19) = (   0.0476190   0.4162461   0.0000000), wk =   0.0045351
        k(   20) = (   0.0476190   0.4717822   0.0000000), wk =   0.0045351
        k(   21) = (   0.0476190   0.5273183   0.0000000), wk =   0.0045351
        k(   22) = (   0.0476190   0.5828545   0.0000000), wk =   0.0045351
        k(   23) = (   0.0476190  -0.5278682   0.0000000), wk =   0.0045351
        k(   24) = (   0.0476190  -0.4723321   0.0000000), wk =   0.0045351
        k(   25) = (   0.0476190  -0.4167959   0.0000000), wk =   0.0045351
        k(   26) = (   0.0476190  -0.3612598   0.0000000), wk =   0.0045351
        k(   27) = (   0.0476190  -0.3057237   0.0000000), wk =   0.0045351
        k(   28) = (   0.0476190  -0.2501875   0.0000000), wk =   0.0045351
        k(   29) = (   0.0476190  -0.1946514   0.0000000), wk =   0.0045351
        k(   30) = (   0.0476190  -0.1391153   0.0000000), wk =   0.0045351
        k(   31) = (   0.0476190  -0.0835791   0.0000000), wk =   0.0045351
        k(   32) = (   0.0476190  -0.0280430   0.0000000), wk =   0.0045351
        k(   33) = (   0.0952381   0.0549863   0.0000000), wk =   0.0045351
        k(   34) = (   0.0952381   0.1105224   0.0000000), wk =   0.0045351
        k(   35) = (   0.0952381   0.1660585   0.0000000), wk =   0.0045351
        k(   36) = (   0.0952381   0.2215947   0.0000000), wk =   0.0045351
        k(   37) = (   0.0952381   0.2771308   0.0000000), wk =   0.0045351
        k(   38) = (   0.0952381   0.3326669   0.0000000), wk =   0.0045351
        k(   39) = (   0.0952381   0.3882031   0.0000000), wk =   0.0045351
        k(   40) = (   0.0952381   0.4437392   0.0000000), wk =   0.0045351
        k(   41) = (   0.0952381   0.4992753   0.0000000), wk =   0.0045351
        k(   42) = (   0.0952381   0.5548115   0.0000000), wk =   0.0045351
        k(   43) = (   0.0952381   0.6103476   0.0000000), wk =   0.0045351
        k(   44) = (   0.0952381  -0.5003751   0.0000000), wk =   0.0045351
        k(   45) = (   0.0952381  -0.4448389   0.0000000), wk =   0.0045351
        k(   46) = (   0.0952381  -0.3893028   0.0000000), wk =   0.0045351
        k(   47) = (   0.0952381  -0.3337667   0.0000000), wk =   0.0045351
        k(   48) = (   0.0952381  -0.2782305   0.0000000), wk =   0.0045351
        k(   49) = (   0.0952381  -0.2226944   0.0000000), wk =   0.0045351
        k(   50) = (   0.0952381  -0.1671583   0.0000000), wk =   0.0045351
        k(   51) = (   0.0952381  -0.1116221   0.0000000), wk =   0.0045351
        k(   52) = (   0.0952381  -0.0560860   0.0000000), wk =   0.0045351
        k(   53) = (   0.0952381  -0.0005499   0.0000000), wk =   0.0045351
        k(   54) = (   0.1428571   0.0824794   0.0000000), wk =   0.0045351
        k(   55) = (   0.1428571   0.1380155   0.0000000), wk =   0.0045351
        k(   56) = (   0.1428571   0.1935517   0.0000000), wk =   0.0045351
        k(   57) = (   0.1428571   0.2490878   0.0000000), wk =   0.0045351
        k(   58) = (   0.1428571   0.3046239   0.0000000), wk =   0.0045351
        k(   59) = (   0.1428571   0.3601601   0.0000000), wk =   0.0045351
        k(   60) = (   0.1428571   0.4156962   0.0000000), wk =   0.0045351
[...]
        k(  207) = (   0.4761905   0.6081482   0.0000000), wk =   0.0045351
        k(  208) = (   0.4761905   0.6636843   0.0000000), wk =   0.0045351
        k(  209) = (   0.4761905   0.7192204   0.0000000), wk =   0.0045351
        k(  210) = (   0.4761905   0.7747566   0.0000000), wk =   0.0045351
        k(  211) = (   0.4761905   0.8302927   0.0000000), wk =   0.0045351
        k(  212) = (   0.4761905  -0.2804300   0.0000000), wk =   0.0045351
        k(  213) = (   0.4761905  -0.2248939   0.0000000), wk =   0.0045351
        k(  214) = (   0.4761905  -0.1693577   0.0000000), wk =   0.0045351
        k(  215) = (   0.4761905  -0.1138216   0.0000000), wk =   0.0045351
        k(  216) = (   0.4761905  -0.0582854   0.0000000), wk =   0.0045351
        k(  217) = (   0.4761905  -0.0027493   0.0000000), wk =   0.0045351
        k(  218) = (   0.4761905   0.0527868   0.0000000), wk =   0.0045351
        k(  219) = (   0.4761905   0.1083230   0.0000000), wk =   0.0045351
        k(  220) = (   0.4761905   0.1638591   0.0000000), wk =   0.0045351
        k(  221) = (   0.4761905   0.2193952   0.0000000), wk =   0.0045351

                       cryst. coord.
        k(    1) = (   0.0000000   0.0000000   0.0000000), wk =   0.0022676
        k(    2) = (   0.0000000   0.0476190   0.0000000), wk =   0.0045351
        k(    3) = (   0.0000000   0.0952381   0.0000000), wk =   0.0045351
        k(    4) = (   0.0000000   0.1428571   0.0000000), wk =   0.0045351
        k(    5) = (   0.0000000   0.1904762   0.0000000), wk =   0.0045351
        k(    6) = (   0.0000000   0.2380952   0.0000000), wk =   0.0045351
        k(    7) = (   0.0000000   0.2857143   0.0000000), wk =   0.0045351
        k(    8) = (   0.0000000   0.3333333   0.0000000), wk =   0.0045351
        k(    9) = (   0.0000000   0.3809524   0.0000000), wk =   0.0045351
        k(   10) = (   0.0000000   0.4285714   0.0000000), wk =   0.0045351
        k(   11) = (   0.0000000   0.4761905   0.0000000), wk =   0.0045351
        k(   12) = (   0.0476190   0.0000000   0.0000000), wk =   0.0045351
        k(   13) = (   0.0476190   0.0476190   0.0000000), wk =   0.0045351
        k(   14) = (   0.0476190   0.0952381   0.0000000), wk =   0.0045351
        k(   15) = (   0.0476190   0.1428571   0.0000000), wk =   0.0045351
        k(   16) = (   0.0476190   0.1904762   0.0000000), wk =   0.0045351
        k(   17) = (   0.0476190   0.2380952   0.0000000), wk =   0.0045351
        k(   18) = (   0.0476190   0.2857143   0.0000000), wk =   0.0045351
        k(   19) = (   0.0476190   0.3333333   0.0000000), wk =   0.0045351
        k(   20) = (   0.0476190   0.3809524   0.0000000), wk =   0.0045351
        k(   21) = (   0.0476190   0.4285714   0.0000000), wk =   0.0045351
        k(   22) = (   0.0476190   0.4761905   0.0000000), wk =   0.0045351
        k(   23) = (   0.0476190  -0.4761905   0.0000000), wk =   0.0045351
        k(   24) = (   0.0476190  -0.4285714   0.0000000), wk =   0.0045351
        k(   25) = (   0.0476190  -0.3809524   0.0000000), wk =   0.0045351
        k(   26) = (   0.0476190  -0.3333333   0.0000000), wk =   0.0045351
        k(   27) = (   0.0476190  -0.2857143   0.0000000), wk =   0.0045351
        k(   28) = (   0.0476190  -0.2380952   0.0000000), wk =   0.0045351
        k(   29) = (   0.0476190  -0.1904762   0.0000000), wk =   0.0045351
        k(   30) = (   0.0476190  -0.1428571   0.0000000), wk =   0.0045351
        k(   31) = (   0.0476190  -0.0952381   0.0000000), wk =   0.0045351
        k(   32) = (   0.0476190  -0.0476190   0.0000000), wk =   0.0045351
        k(   33) = (   0.0952381   0.0000000   0.0000000), wk =   0.0045351
        k(   34) = (   0.0952381   0.0476190   0.0000000), wk =   0.0045351
        k(   35) = (   0.0952381   0.0952381   0.0000000), wk =   0.0045351
        k(   36) = (   0.0952381   0.1428571   0.0000000), wk =   0.0045351
        k(   37) = (   0.0952381   0.1904762   0.0000000), wk =   0.0045351
        k(   38) = (   0.0952381   0.2380952   0.0000000), wk =   0.0045351
        k(   39) = (   0.0952381   0.2857143   0.0000000), wk =   0.0045351
        k(   40) = (   0.0952381   0.3333333   0.0000000), wk =   0.0045351
        k(   41) = (   0.0952381   0.3809524   0.0000000), wk =   0.0045351
        k(   42) = (   0.0952381   0.4285714   0.0000000), wk =   0.0045351
        k(   43) = (   0.0952381   0.4761905   0.0000000), wk =   0.0045351
        k(   44) = (   0.0952381  -0.4761905   0.0000000), wk =   0.0045351
        k(   45) = (   0.0952381  -0.4285714   0.0000000), wk =   0.0045351
        k(   46) = (   0.0952381  -0.3809524   0.0000000), wk =   0.0045351
        k(   47) = (   0.0952381  -0.3333333   0.0000000), wk =   0.0045351
        k(   48) = (   0.0952381  -0.2857143   0.0000000), wk =   0.0045351
        k(   49) = (   0.0952381  -0.2380952   0.0000000), wk =   0.0045351
        k(   50) = (   0.0952381  -0.1904762   0.0000000), wk =   0.0045351
        k(   51) = (   0.0952381  -0.1428571   0.0000000), wk =   0.0045351
        k(   52) = (   0.0952381  -0.0952381   0.0000000), wk =   0.0045351
        k(   53) = (   0.0952381  -0.0476190   0.0000000), wk =   0.0045351
        k(   54) = (   0.1428571  -0.0000000   0.0000000), wk =   0.0045351
        k(   55) = (   0.1428571   0.0476190   0.0000000), wk =   0.0045351
        k(   56) = (   0.1428571   0.0952381   0.0000000), wk =   0.0045351
        k(   57) = (   0.1428571   0.1428571   0.0000000), wk =   0.0045351
        k(   58) = (   0.1428571   0.1904762   0.0000000), wk =   0.0045351
        k(   59) = (   0.1428571   0.2380952   0.0000000), wk =   0.0045351
        k(   60) = (   0.1428571   0.2857143   0.0000000), wk =   0.0045351
[...]
        k(  207) = (   0.4761905   0.2857143   0.0000000), wk =   0.0045351
        k(  208) = (   0.4761905   0.3333333   0.0000000), wk =   0.0045351
        k(  209) = (   0.4761905   0.3809524   0.0000000), wk =   0.0045351
        k(  210) = (   0.4761905   0.4285714   0.0000000), wk =   0.0045351
        k(  211) = (   0.4761905   0.4761905   0.0000000), wk =   0.0045351
        k(  212) = (   0.4761905  -0.4761905   0.0000000), wk =   0.0045351
        k(  213) = (   0.4761905  -0.4285714   0.0000000), wk =   0.0045351
        k(  214) = (   0.4761905  -0.3809524   0.0000000), wk =   0.0045351
        k(  215) = (   0.4761905  -0.3333333   0.0000000), wk =   0.0045351
        k(  216) = (   0.4761905  -0.2857143   0.0000000), wk =   0.0045351
        k(  217) = (   0.4761905  -0.2380952   0.0000000), wk =   0.0045351
        k(  218) = (   0.4761905  -0.1904762   0.0000000), wk =   0.0045351
        k(  219) = (   0.4761905  -0.1428571   0.0000000), wk =   0.0045351
        k(  220) = (   0.4761905  -0.0952381   0.0000000), wk =   0.0045351
        k(  221) = (   0.4761905  -0.0476190   0.0000000), wk =   0.0045351

     Initial potential from superposition of free atoms

     starting charge      77.7613, renormalised to      78.0000

     negative rho (up, down):  3.878E-04 0.000E+00
     Starting wfcs are random

     Self-consistent Calculation

     iteration #  1     ecut=    50.00 Ry     beta= 0.70
     Davidson diagonalization with overlap

     ethr =  1.00E-02,  avg # of iterations = 12.3

     Threshold (ethr) on eigenvalues was too large:
     Diagonalizing with lowered threshold

     Davidson diagonalization with overlap

[...]

     negative rho (up, down):  1.673E-05 0.000E+00

     total energy              =    -806.53987781 Ry
     estimated scf accuracy    <       0.07767511 Ry

[...]

     negative rho (up, down):  1.537E-08 0.000E+00

[...]

     total energy              =    -806.57356753 Ry
     estimated scf accuracy    <       0.00000019 Ry

     iteration # 14     ecut=    50.00 Ry     beta= 0.70
     Davidson diagonalization with overlap

     ethr =  2.47E-10,  avg # of iterations =  2.1

     End of self-consistent calculation

          k = 0.0000 0.0000 0.0000 ( 14485 PWs)   bands (ev):

   -35.4329 -35.4329 -35.4327 -35.4327 -35.4068 -35.4068 -35.4065 -35.4065
   -35.3194 -35.3194 -35.2839 -35.2839 -33.9731 -33.9731 -33.9729 -33.9729
   -33.9510 -33.9510 -33.9507 -33.9507 -33.9392 -33.9392 -33.9390 -33.9390
   -33.8569 -33.8569 -33.8415 -33.8415 -33.8108 -33.8108 -28.0571 -28.0571
   -28.0568 -28.0568 -28.0483 -28.0483 -28.0481 -28.0481 -26.8181 -26.8181
   -26.8177 -26.8177 -26.8080 -26.8080 -26.8078 -26.8078 -26.8068 -26.8068
   -26.8066 -26.8066 -10.5840 -10.5840 -10.0586 -10.0586  -8.9726  -8.9726
    -6.2131  -6.2131  -4.7960  -4.7960  -0.4440  -0.4440   0.0774   0.0774
     0.3209   0.3209   0.5916   0.5916   0.6810   0.6810   0.7909   0.7909
     1.0062   1.0062   1.3916   1.3916   1.5324   1.5324

     occupation numbers
     1.0000   1.0000   1.0000   1.0000   1.0000   1.0000   1.0000   1.0000
     1.0000   1.0000   1.0000   1.0000   1.0000   1.0000   1.0000   1.0000
     1.0000   1.0000   1.0000   1.0000   1.0000   1.0000   1.0000   1.0000
     1.0000   1.0000   1.0000   1.0000   1.0000   1.0000   1.0000   1.0000
     1.0000   1.0000   1.0000   1.0000   1.0000   1.0000   1.0000   1.0000
     1.0000   1.0000   1.0000   1.0000   1.0000   1.0000   1.0000   1.0000
     1.0000   1.0000   1.0000   1.0000   1.0000   1.0000   1.0000   1.0000
     1.0000   1.0000   1.0000   1.0000   1.0000   1.0000   1.0000   1.0000
     1.0000   1.0000   1.0000   1.0000   1.0000   1.0000   1.0000   1.0000
     1.0000   1.0000   1.0000   1.0000   1.0000   1.0000

[...]

          k = 0.4762 0.2194 0.0000 ( 14534 PWs)   bands (ev):

   -35.4324 -35.4324 -35.4322 -35.4322 -35.4067 -35.4067 -35.4064 -35.4064
   -35.3193 -35.3193 -35.2835 -35.2835 -33.9723 -33.9723 -33.9721 -33.9721
   -33.9510 -33.9510 -33.9507 -33.9507 -33.9389 -33.9388 -33.9386 -33.9386
   -33.8565 -33.8565 -33.8415 -33.8415 -33.8101 -33.8101 -28.0564 -28.0562
   -28.0561 -28.0560 -28.0486 -28.0485 -28.0483 -28.0482 -26.8165 -26.8164
   -26.8163 -26.8162 -26.8091 -26.8090 -26.8088 -26.8087 -26.8062 -26.8062
   -26.8059 -26.8058  -9.0572  -9.0572  -8.8663  -8.8663  -8.6813  -8.6812
    -7.1424  -7.1424  -6.6038  -6.6038  -2.9442  -2.9441  -1.7452  -1.7445
    -1.5155  -1.5144  -1.1197  -1.1191  -0.6375  -0.6372  -0.1842  -0.1834
     0.3931   0.3946   1.0198   1.0203   1.3054   1.3056

     occupation numbers
     1.0000   1.0000   1.0000   1.0000   1.0000   1.0000   1.0000   1.0000
     1.0000   1.0000   1.0000   1.0000   1.0000   1.0000   1.0000   1.0000
     1.0000   1.0000   1.0000   1.0000   1.0000   1.0000   1.0000   1.0000
     1.0000   1.0000   1.0000   1.0000   1.0000   1.0000   1.0000   1.0000
     1.0000   1.0000   1.0000   1.0000   1.0000   1.0000   1.0000   1.0000
     1.0000   1.0000   1.0000   1.0000   1.0000   1.0000   1.0000   1.0000
     1.0000   1.0000   1.0000   1.0000   1.0000   1.0000   1.0000   1.0000
     1.0000   1.0000   1.0000   1.0000   1.0000   1.0000   1.0000   1.0000
     1.0000   1.0000   1.0000   1.0000   1.0000   1.0000   1.0000   1.0000
     1.0000   1.0000   1.0000   1.0000   1.0000   1.0000

     highest occupied level (ev):     1.8773

!    total energy              =    -806.57356750 Ry
     estimated scf accuracy    <       0.00000004 Ry

     The total energy is the sum of the following terms:
     one-electron contribution =   -3396.46450314 Ry
     hartree contribution      =    1693.59367910 Ry
     xc contribution           =     -87.18367613 Ry
     ewald contribution        =     983.48093266 Ry

     convergence has been achieved in  14 iterations

     Writing all to output data dir tmp/Sb2Te3-uatsx-c2-soc-1.0.save/ :
     XML data file, charge density, pseudopotentials, collected wavefunctions

     General routines

     Parallel routines

   This run was terminated on:  14:52:24  14Aug2025

   JOB DONE.