     Program PWSCF v.7.4.1 starts on 23Aug2025 at  2:31:22

     Waiting for input...
     Reading input from standard input

     Current dimensions of program PWSCF are:
     Max number of different atomic species (ntypx) = 10
     Max number of k-points (npk) =  40000
     Max angular momentum in pseudopotentials (lmaxx) =  4
Error reading attribute index: expected integer, found *
Error reading attribute index: expected integer, found *

     IMPORTANT: XC functional enforced from input :
     Exchange-correlation= PBE
                           (   1   4   3   4   0   0   0)
     Any further DFT definition will be discarded
     Please, verify this is what you really want

     Message from routine setup:
     no reason to have ecutrho>4*ecutwfc

     R & G space division:  proc/nbgrp/npool/nimage =      24
     Subspace diagonalization in iterative solution of the eigenvalue problem:
     a serial algorithm will be used

     Using Slab Decomposition

     bravais-lattice index     =            0
     lattice parameter (alat)  =       8.5529  a.u.
     unit-cell volume          =    2526.9262 (a.u.)^3
     number of atoms/cell      =            5
     number of atomic types    =            2
     number of electrons       =        78.00
     number of Kohn-Sham states=           78
     kinetic-energy cutoff     =      70.0000  Ry
     charge density cutoff     =     700.0000  Ry
     scf convergence threshold =      1.0E-07
     mixing beta               =       0.7000
     number of iterations used =            8  plain     mixing
     Exchange-correlation= PBE
                           (   1   4   3   4   0   0   0)
     Non magnetic calculation with spin-orbit

     celldm(1)=   8.552915  celldm(2)=   0.000000  celldm(3)=   0.000000
     celldm(4)=   0.000000  celldm(5)=   0.000000  celldm(6)=   0.000000

     crystal axes: (cart. coord. in units of alat)
               a(1) = (   1.000000   0.000000   0.000000 )
               a(2) = (  -0.476190   0.824778   0.000000 )
               a(3) = (   0.000000   0.000000   4.896807 )

     reciprocal axes: (cart. coord. in units 2 pi/alat)
               b(1) = (  1.000000  0.577356 -0.000000 )
               b(2) = (  0.000000  1.212447  0.000000 )
               b(3) = (  0.000000 -0.000000  0.204215 )

     PseudoPot. # 1 for Sb read from file:
     /zfs-home/202401017n1/pseudos/Sb_ONCV_PBE_FR-1.1.upf
     MD5 check sum: 7dc1726f2158e3c51e4807d42b9c5c65
     Pseudo is Norm-conserving, Zval = 15.0
     Generated using ONCVPSP code by D. R. Hamann
     Using radial grid of  602 points, 10 beta functions with:
                l(1) =   0
                l(2) =   0
                l(3) =   1
                l(4) =   1
                l(5) =   1
                l(6) =   1
                l(7) =   2
                l(8) =   2
                l(9) =   2
               l(10) =   2

     PseudoPot. # 2 for Te read from file:
     /zfs-home/202401017n1/pseudos/Te_ONCV_PBE_FR-1.1.upf
     MD5 check sum: c6e17480449037a9a9d16e6377b5c7c4
     Pseudo is Norm-conserving, Zval = 16.0
     Generated using ONCVPSP code by D. R. Hamann
     Using radial grid of  602 points, 10 beta functions with:
                l(1) =   0
                l(2) =   0
                l(3) =   1
                l(4) =   1
                l(5) =   1
                l(6) =   1
                l(7) =   2
                l(8) =   2
                l(9) =   2
               l(10) =   2

     atomic species   valence    mass     pseudopotential
     Sb               15.00   121.76000     Sb( 1.00)
     Te               16.00   127.60000     Te( 1.00)

     No symmetry found

                                    s                        frac. trans.

      isym =  1     identity

 cryst.   s( 1) = (     1          0          0      )
                  (     0          1          0      )
                  (     0          0          1      )

 cart.    s( 1) = (  1.0000000  0.0000000  0.0000000 )
                  (  0.0000000  1.0000000  0.0000000 )
                  (  0.0000000  0.0000000  1.0000000 )

   Cartesian axes

     site n.     atom                  positions (alat units)
         1        Sb     tau(   1) = (   0.5941563   0.4140600   2.8819763  )
         2        Te     tau(   2) = (   0.5757813   0.3831770   1.6487259  )
         3        Sb     tau(   3) = (   0.0713597   0.1150985   2.0147862  )
         4        Te     tau(   4) = (   0.0896521   0.1461334   3.2480478  )
         5        Te     tau(   5) = (   0.0946223   0.6770376   2.4483865  )

     Parameters for Dispersion (Grimme-D2) Correction:
       atom      VdW radius       C_6

        Sb         3.555       1333.532
        Te         3.575       1101.101

   Crystallographic axes

     site n.     atom                  positions (cryst. coord.)
         1        Sb     tau(   1) = (  0.8332162  0.5020259  0.5885420  )
         2        Te     tau(   2) = (  0.7970108  0.4645820  0.3366941  )
         3        Sb     tau(   3) = (  0.1378125  0.1395508  0.4114490  )
         4        Te     tau(   4) = (  0.1740231  0.1771791  0.6632992  )
         5        Te     tau(   5) = (  0.4855140  0.8208724  0.4999966  )

     number of k points=   221
                       cart. coord. in units 2pi/alat
        k(    1) = (   0.0000000   0.0000000   0.0000000), wk =   0.0022676
        k(    2) = (   0.0000000   0.0577356   0.0000000), wk =   0.0045351
        k(    3) = (   0.0000000   0.1154712   0.0000000), wk =   0.0045351
        k(    4) = (   0.0000000   0.1732068   0.0000000), wk =   0.0045351
        k(    5) = (   0.0000000   0.2309423   0.0000000), wk =   0.0045351
        k(    6) = (   0.0000000   0.2886779   0.0000000), wk =   0.0045351
        k(    7) = (   0.0000000   0.3464135   0.0000000), wk =   0.0045351
        k(    8) = (   0.0000000   0.4041491   0.0000000), wk =   0.0045351
        k(    9) = (   0.0000000   0.4618847   0.0000000), wk =   0.0045351
        k(   10) = (   0.0000000   0.5196203   0.0000000), wk =   0.0045351
        k(   11) = (   0.0000000   0.5773559   0.0000000), wk =   0.0045351
        k(   12) = (   0.0476190   0.0274931   0.0000000), wk =   0.0045351
        k(   13) = (   0.0476190   0.0852287   0.0000000), wk =   0.0045351
        k(   14) = (   0.0476190   0.1429643   0.0000000), wk =   0.0045351
        k(   15) = (   0.0476190   0.2006999   0.0000000), wk =   0.0045351
        k(   16) = (   0.0476190   0.2584355   0.0000000), wk =   0.0045351
        k(   17) = (   0.0476190   0.3161711   0.0000000), wk =   0.0045351
        k(   18) = (   0.0476190   0.3739066   0.0000000), wk =   0.0045351
        k(   19) = (   0.0476190   0.4316422   0.0000000), wk =   0.0045351
        k(   20) = (   0.0476190   0.4893778   0.0000000), wk =   0.0045351
        k(   21) = (   0.0476190   0.5471134   0.0000000), wk =   0.0045351
        k(   22) = (   0.0476190   0.6048490   0.0000000), wk =   0.0045351
        k(   23) = (   0.0476190  -0.5498627   0.0000000), wk =   0.0045351
        k(   24) = (   0.0476190  -0.4921271   0.0000000), wk =   0.0045351
        k(   25) = (   0.0476190  -0.4343915   0.0000000), wk =   0.0045351
        k(   26) = (   0.0476190  -0.3766560   0.0000000), wk =   0.0045351
        k(   27) = (   0.0476190  -0.3189204   0.0000000), wk =   0.0045351
        k(   28) = (   0.0476190  -0.2611848   0.0000000), wk =   0.0045351
        k(   29) = (   0.0476190  -0.2034492   0.0000000), wk =   0.0045351
        k(   30) = (   0.0476190  -0.1457136   0.0000000), wk =   0.0045351
        k(   31) = (   0.0476190  -0.0879780   0.0000000), wk =   0.0045351
        k(   32) = (   0.0476190  -0.0302424   0.0000000), wk =   0.0045351
        k(   33) = (   0.0952381   0.0549863   0.0000000), wk =   0.0045351
        k(   34) = (   0.0952381   0.1127219   0.0000000), wk =   0.0045351
        k(   35) = (   0.0952381   0.1704574   0.0000000), wk =   0.0045351
        k(   36) = (   0.0952381   0.2281930   0.0000000), wk =   0.0045351
        k(   37) = (   0.0952381   0.2859286   0.0000000), wk =   0.0045351
        k(   38) = (   0.0952381   0.3436642   0.0000000), wk =   0.0045351
        k(   39) = (   0.0952381   0.4013998   0.0000000), wk =   0.0045351
        k(   40) = (   0.0952381   0.4591354   0.0000000), wk =   0.0045351
        k(   41) = (   0.0952381   0.5168710   0.0000000), wk =   0.0045351
        k(   42) = (   0.0952381   0.5746065   0.0000000), wk =   0.0045351
        k(   43) = (   0.0952381   0.6323421   0.0000000), wk =   0.0045351
        k(   44) = (   0.0952381  -0.5223696   0.0000000), wk =   0.0045351
        k(   45) = (   0.0952381  -0.4646340   0.0000000), wk =   0.0045351
        k(   46) = (   0.0952381  -0.4068984   0.0000000), wk =   0.0045351
        k(   47) = (   0.0952381  -0.3491628   0.0000000), wk =   0.0045351
        k(   48) = (   0.0952381  -0.2914272   0.0000000), wk =   0.0045351
        k(   49) = (   0.0952381  -0.2336917   0.0000000), wk =   0.0045351
        k(   50) = (   0.0952381  -0.1759561   0.0000000), wk =   0.0045351
        k(   51) = (   0.0952381  -0.1182205   0.0000000), wk =   0.0045351
        k(   52) = (   0.0952381  -0.0604849   0.0000000), wk =   0.0045351
        k(   53) = (   0.0952381  -0.0027493   0.0000000), wk =   0.0045351
        k(   54) = (   0.1428571   0.0824794   0.0000000), wk =   0.0045351
        k(   55) = (   0.1428571   0.1402150   0.0000000), wk =   0.0045351
        k(   56) = (   0.1428571   0.1979506   0.0000000), wk =   0.0045351
        k(   57) = (   0.1428571   0.2556862   0.0000000), wk =   0.0045351
        k(   58) = (   0.1428571   0.3134217   0.0000000), wk =   0.0045351
        k(   59) = (   0.1428571   0.3711573   0.0000000), wk =   0.0045351
        k(   60) = (   0.1428571   0.4288929   0.0000000), wk =   0.0045351
[...]
        k(  207) = (   0.4761905   0.6213449   0.0000000), wk =   0.0045351
        k(  208) = (   0.4761905   0.6790805   0.0000000), wk =   0.0045351
        k(  209) = (   0.4761905   0.7368160   0.0000000), wk =   0.0045351
        k(  210) = (   0.4761905   0.7945516   0.0000000), wk =   0.0045351
        k(  211) = (   0.4761905   0.8522872   0.0000000), wk =   0.0045351
        k(  212) = (   0.4761905  -0.3024245   0.0000000), wk =   0.0045351
        k(  213) = (   0.4761905  -0.2446889   0.0000000), wk =   0.0045351
        k(  214) = (   0.4761905  -0.1869533   0.0000000), wk =   0.0045351
        k(  215) = (   0.4761905  -0.1292177   0.0000000), wk =   0.0045351
        k(  216) = (   0.4761905  -0.0714822   0.0000000), wk =   0.0045351
        k(  217) = (   0.4761905  -0.0137466   0.0000000), wk =   0.0045351
        k(  218) = (   0.4761905   0.0439890   0.0000000), wk =   0.0045351
        k(  219) = (   0.4761905   0.1017246   0.0000000), wk =   0.0045351
        k(  220) = (   0.4761905   0.1594602   0.0000000), wk =   0.0045351
        k(  221) = (   0.4761905   0.2171958   0.0000000), wk =   0.0045351

                       cryst. coord.
        k(    1) = (   0.0000000   0.0000000   0.0000000), wk =   0.0022676
        k(    2) = (   0.0000000   0.0476190   0.0000000), wk =   0.0045351
        k(    3) = (   0.0000000   0.0952381   0.0000000), wk =   0.0045351
        k(    4) = (   0.0000000   0.1428571   0.0000000), wk =   0.0045351
        k(    5) = (   0.0000000   0.1904762   0.0000000), wk =   0.0045351
        k(    6) = (   0.0000000   0.2380952   0.0000000), wk =   0.0045351
        k(    7) = (   0.0000000   0.2857143   0.0000000), wk =   0.0045351
        k(    8) = (   0.0000000   0.3333333   0.0000000), wk =   0.0045351
        k(    9) = (   0.0000000   0.3809524   0.0000000), wk =   0.0045351
        k(   10) = (   0.0000000   0.4285714   0.0000000), wk =   0.0045351
        k(   11) = (   0.0000000   0.4761905   0.0000000), wk =   0.0045351
        k(   12) = (   0.0476190   0.0000000   0.0000000), wk =   0.0045351
        k(   13) = (   0.0476190   0.0476190   0.0000000), wk =   0.0045351
        k(   14) = (   0.0476190   0.0952381   0.0000000), wk =   0.0045351
        k(   15) = (   0.0476190   0.1428571   0.0000000), wk =   0.0045351
        k(   16) = (   0.0476190   0.1904762   0.0000000), wk =   0.0045351
        k(   17) = (   0.0476190   0.2380952   0.0000000), wk =   0.0045351
        k(   18) = (   0.0476190   0.2857143   0.0000000), wk =   0.0045351
        k(   19) = (   0.0476190   0.3333333   0.0000000), wk =   0.0045351
        k(   20) = (   0.0476190   0.3809524   0.0000000), wk =   0.0045351
        k(   21) = (   0.0476190   0.4285714   0.0000000), wk =   0.0045351
        k(   22) = (   0.0476190   0.4761905   0.0000000), wk =   0.0045351
        k(   23) = (   0.0476190  -0.4761905   0.0000000), wk =   0.0045351
        k(   24) = (   0.0476190  -0.4285714   0.0000000), wk =   0.0045351
        k(   25) = (   0.0476190  -0.3809524   0.0000000), wk =   0.0045351
        k(   26) = (   0.0476190  -0.3333333   0.0000000), wk =   0.0045351
        k(   27) = (   0.0476190  -0.2857143   0.0000000), wk =   0.0045351
        k(   28) = (   0.0476190  -0.2380952   0.0000000), wk =   0.0045351
        k(   29) = (   0.0476190  -0.1904762   0.0000000), wk =   0.0045351
        k(   30) = (   0.0476190  -0.1428571   0.0000000), wk =   0.0045351
        k(   31) = (   0.0476190  -0.0952381   0.0000000), wk =   0.0045351
        k(   32) = (   0.0476190  -0.0476190   0.0000000), wk =   0.0045351
        k(   33) = (   0.0952381   0.0000000   0.0000000), wk =   0.0045351
        k(   34) = (   0.0952381   0.0476190   0.0000000), wk =   0.0045351
        k(   35) = (   0.0952381   0.0952381   0.0000000), wk =   0.0045351
        k(   36) = (   0.0952381   0.1428571   0.0000000), wk =   0.0045351
        k(   37) = (   0.0952381   0.1904762   0.0000000), wk =   0.0045351
        k(   38) = (   0.0952381   0.2380952   0.0000000), wk =   0.0045351
        k(   39) = (   0.0952381   0.2857143   0.0000000), wk =   0.0045351
        k(   40) = (   0.0952381   0.3333333   0.0000000), wk =   0.0045351
        k(   41) = (   0.0952381   0.3809524   0.0000000), wk =   0.0045351
        k(   42) = (   0.0952381   0.4285714   0.0000000), wk =   0.0045351
        k(   43) = (   0.0952381   0.4761905   0.0000000), wk =   0.0045351
        k(   44) = (   0.0952381  -0.4761905   0.0000000), wk =   0.0045351
        k(   45) = (   0.0952381  -0.4285714   0.0000000), wk =   0.0045351
        k(   46) = (   0.0952381  -0.3809524   0.0000000), wk =   0.0045351
        k(   47) = (   0.0952381  -0.3333333   0.0000000), wk =   0.0045351
        k(   48) = (   0.0952381  -0.2857143   0.0000000), wk =   0.0045351
        k(   49) = (   0.0952381  -0.2380952   0.0000000), wk =   0.0045351
        k(   50) = (   0.0952381  -0.1904762   0.0000000), wk =   0.0045351
        k(   51) = (   0.0952381  -0.1428571   0.0000000), wk =   0.0045351
        k(   52) = (   0.0952381  -0.0952381   0.0000000), wk =   0.0045351
        k(   53) = (   0.0952381  -0.0476190   0.0000000), wk =   0.0045351
        k(   54) = (   0.1428571   0.0000000   0.0000000), wk =   0.0045351
        k(   55) = (   0.1428571   0.0476190   0.0000000), wk =   0.0045351
        k(   56) = (   0.1428571   0.0952381   0.0000000), wk =   0.0045351
        k(   57) = (   0.1428571   0.1428571   0.0000000), wk =   0.0045351
        k(   58) = (   0.1428571   0.1904762   0.0000000), wk =   0.0045351
        k(   59) = (   0.1428571   0.2380952   0.0000000), wk =   0.0045351
        k(   60) = (   0.1428571   0.2857143   0.0000000), wk =   0.0045351
[...]
        k(  207) = (   0.4761905   0.2857143   0.0000000), wk =   0.0045351
        k(  208) = (   0.4761905   0.3333333   0.0000000), wk =   0.0045351
        k(  209) = (   0.4761905   0.3809524   0.0000000), wk =   0.0045351
        k(  210) = (   0.4761905   0.4285714   0.0000000), wk =   0.0045351
        k(  211) = (   0.4761905   0.4761905   0.0000000), wk =   0.0045351
        k(  212) = (   0.4761905  -0.4761905   0.0000000), wk =   0.0045351
        k(  213) = (   0.4761905  -0.4285714   0.0000000), wk =   0.0045351
        k(  214) = (   0.4761905  -0.3809524   0.0000000), wk =   0.0045351
        k(  215) = (   0.4761905  -0.3333333   0.0000000), wk =   0.0045351
        k(  216) = (   0.4761905  -0.2857143   0.0000000), wk =   0.0045351
        k(  217) = (   0.4761905  -0.2380952   0.0000000), wk =   0.0045351
        k(  218) = (   0.4761905  -0.1904762   0.0000000), wk =   0.0045351
        k(  219) = (   0.4761905  -0.1428571   0.0000000), wk =   0.0045351
        k(  220) = (   0.4761905  -0.0952381   0.0000000), wk =   0.0045351
        k(  221) = (   0.4761905  -0.0476190   0.0000000), wk =   0.0045351

     Initial potential from superposition of free atoms

     starting charge      77.7613, renormalised to      78.0000

     negative rho (up, down):  2.788E-04 0.000E+00
     Starting wfcs are random

     Self-consistent Calculation

     iteration #  1     ecut=    70.00 Ry     beta= 0.70
     Davidson diagonalization with overlap

     ethr =  1.00E-02,  avg # of iterations = 12.4

     Threshold (ethr) on eigenvalues was too large:
     Diagonalizing with lowered threshold

     Davidson diagonalization with overlap

[...]

     negative rho (up, down):  3.357E-06 0.000E+00

     total energy              =    -806.62845052 Ry
     estimated scf accuracy    <       0.08545779 Ry

[...]

     negative rho (up, down):  2.950E-08 0.000E+00

[...]

     total energy              =    -806.66685192 Ry
     estimated scf accuracy    <       0.00000433 Ry

     iteration # 12     ecut=    70.00 Ry     beta= 0.70
     Davidson diagonalization with overlap

     ethr =  6.89E-10,  avg # of iterations =  5.2

     End of self-consistent calculation

          k = 0.0000 0.0000 0.0000 ( 24991 PWs)   bands (ev):

   -35.7011 -35.7011 -35.7010 -35.7010 -35.6647 -35.6647 -35.6646 -35.6646
   -35.6007 -35.6007 -35.5706 -35.5706 -34.2432 -34.2432 -34.2431 -34.2431
   -34.2128 -34.2128 -34.2127 -34.2127 -34.1959 -34.1959 -34.1958 -34.1958
   -34.1398 -34.1398 -34.1209 -34.1209 -34.1002 -34.1002 -28.3589 -28.3589
   -28.3588 -28.3588 -28.3502 -28.3502 -28.3501 -28.3501 -27.1193 -27.1193
   -27.1191 -27.1191 -27.1114 -27.1114 -27.1111 -27.1111 -27.1071 -27.1071
   -27.1070 -27.1070 -10.7512 -10.7512 -10.2085 -10.2085  -9.1412  -9.1412
    -6.4151  -6.4151  -5.0991  -5.0991  -0.7283  -0.7283  -0.3266  -0.3266
    -0.0131  -0.0131   0.2175   0.2175   0.3360   0.3360   0.3906   0.3906
     0.7099   0.7099   0.9285   0.9285   1.1551   1.1551

     occupation numbers
     1.0000   1.0000   1.0000   1.0000   1.0000   1.0000   1.0000   1.0000
     1.0000   1.0000   1.0000   1.0000   1.0000   1.0000   1.0000   1.0000
     1.0000   1.0000   1.0000   1.0000   1.0000   1.0000   1.0000   1.0000
     1.0000   1.0000   1.0000   1.0000   1.0000   1.0000   1.0000   1.0000
     1.0000   1.0000   1.0000   1.0000   1.0000   1.0000   1.0000   1.0000
     1.0000   1.0000   1.0000   1.0000   1.0000   1.0000   1.0000   1.0000
     1.0000   1.0000   1.0000   1.0000   1.0000   1.0000   1.0000   1.0000
     1.0000   1.0000   1.0000   1.0000   1.0000   1.0000   1.0000   1.0000
     1.0000   1.0000   1.0000   1.0000   1.0000   1.0000   1.0000   1.0000
     1.0000   1.0000   1.0000   1.0000   1.0000   1.0000

[...]

          k = 0.4762 0.2172 0.0000 ( 24978 PWs)   bands (ev):

   -35.7008 -35.7008 -35.7007 -35.7007 -35.6647 -35.6647 -35.6645 -35.6645
   -35.6006 -35.6006 -35.5704 -35.5704 -34.2427 -34.2427 -34.2426 -34.2426
   -34.2128 -34.2128 -34.2127 -34.2127 -34.1957 -34.1957 -34.1956 -34.1956
   -34.1396 -34.1396 -34.1209 -34.1209 -34.0997 -34.0997 -28.3586 -28.3586
   -28.3585 -28.3584 -28.3503 -28.3502 -28.3500 -28.3500 -27.1185 -27.1184
   -27.1184 -27.1183 -27.1116 -27.1115 -27.1112 -27.1112 -27.1071 -27.1071
   -27.1068 -27.1068  -9.3550  -9.3550  -9.1641  -9.1641  -8.9839  -8.9839
    -7.4456  -7.4456  -6.8943  -6.8943  -3.1063  -3.1063  -1.9237  -1.9236
    -1.6656  -1.6654  -1.3009  -1.3007  -0.8052  -0.8052  -0.3613  -0.3612
     0.2622   0.2625   0.8789   0.8791   1.1663   1.1664

     occupation numbers
     1.0000   1.0000   1.0000   1.0000   1.0000   1.0000   1.0000   1.0000
     1.0000   1.0000   1.0000   1.0000   1.0000   1.0000   1.0000   1.0000
     1.0000   1.0000   1.0000   1.0000   1.0000   1.0000   1.0000   1.0000
     1.0000   1.0000   1.0000   1.0000   1.0000   1.0000   1.0000   1.0000
     1.0000   1.0000   1.0000   1.0000   1.0000   1.0000   1.0000   1.0000
     1.0000   1.0000   1.0000   1.0000   1.0000   1.0000   1.0000   1.0000
     1.0000   1.0000   1.0000   1.0000   1.0000   1.0000   1.0000   1.0000
     1.0000   1.0000   1.0000   1.0000   1.0000   1.0000   1.0000   1.0000
     1.0000   1.0000   1.0000   1.0000   1.0000   1.0000   1.0000   1.0000
     1.0000   1.0000   1.0000   1.0000   1.0000   1.0000

     highest occupied level (ev):     1.5811

!    total energy              =    -806.66685220 Ry
     estimated scf accuracy    <       0.00000004 Ry

     The total energy is the sum of the following terms:
     one-electron contribution =   -3368.29679165 Ry
     hartree contribution      =    1678.70360757 Ry
     xc contribution           =     -87.13012480 Ry
     ewald contribution        =     970.15133345 Ry
     Dispersion Correction     =      -0.09487676 Ry

     convergence has been achieved in  12 iterations

     Writing all to output data dir tmp/Sb2Te3-uatsx-c5-soc-5.0.save/ :
     XML data file, charge density, pseudopotentials, collected wavefunctions

     General routines

     Parallel routines

   This run was terminated on:   3: 2:53  23Aug2025

   JOB DONE.