     Program PWSCF v.7.3.1 starts on 20May2025 at  6:54:23

     Waiting for input...
     Reading input from standard input

     Current dimensions of program PWSCF are:
     Max number of different atomic species (ntypx) = 10
     Max number of k-points (npk) =  40000
     Max angular momentum in pseudopotentials (lmaxx) =  4

     IMPORTANT: XC functional enforced from input :
     Exchange-correlation= GAUP
                           (   1   4  20   4   0   0   0)
     EXX-fraction              =        0.24
     Any further DFT definition will be discarded
     Please, verify this is what you really want

     K-points division:     npool     =       2
     R & G space division:  proc/nbgrp/npool/nimage =      84
     Subspace diagonalization in iterative solution of the eigenvalue problem:
     a serial algorithm will be used

     EXX: q-point mesh:     1    1    1
     EXX: setup a grid of 85 q-points centered on each k-point
     (k+q)-points:
   0.0000000   0.0000000   0.0000000         1    1
   0.0000000   0.0932652   0.0000000         2    1
   0.0000000   0.1865304   0.0000000         3    1
   0.0000000   0.2797955   0.0000000         4    1
   0.0000000   0.3730607   0.0000000         5    1
   0.0000000   0.4663259   0.0000000         6    1
   0.0000000   0.5595911   0.0000000         7    1
   0.0769231   0.0444120   0.0000000         8    1
   0.0769231   0.1376772   0.0000000         9    1
   0.0769231   0.2309423   0.0000000        10    1
   0.0769231   0.3242075   0.0000000        11    1
   0.0769231   0.4174727   0.0000000        12    1
   0.0769231   0.5107379   0.0000000        13    1
   0.0769231   0.6040030   0.0000000        14    1
   0.0769231  -0.5151791   0.0000000        15    1
   0.0769231  -0.4219139   0.0000000        16    1
   0.0769231  -0.3286487   0.0000000        17    1
   0.0769231  -0.2353835   0.0000000        18    1
   0.0769231  -0.1421184   0.0000000        19    1
   0.0769231  -0.0488532   0.0000000        20    1
   0.1538462   0.0888240   0.0000000        21    1
   0.1538462   0.1820892   0.0000000        22    1
   0.1538462   0.2753543   0.0000000        23    1
   0.1538462   0.3686195   0.0000000        24    1
   0.1538462   0.4618847   0.0000000        25    1
   0.1538462   0.5551499   0.0000000        26    1
   0.1538462   0.6484150   0.0000000        27    1
   0.1538462  -0.4707671   0.0000000        28    1
   0.1538462  -0.3775019   0.0000000        29    1
   0.1538462  -0.2842367   0.0000000        30    1
   0.1538462  -0.1909716   0.0000000        31    1
   0.1538462  -0.0977064   0.0000000        32    1
   0.1538462  -0.0044412   0.0000000        33    1
   0.2307692   0.1332360   0.0000000        34    1
   0.2307692   0.2265011   0.0000000        35    1
   0.2307692   0.3197663   0.0000000        36    1
   0.2307692   0.4130315   0.0000000        37    1
   0.2307692   0.5062967   0.0000000        38    1
   0.2307692   0.5995618   0.0000000        39    1
   0.2307692   0.6928270   0.0000000        40    1
   0.2307692  -0.4263551   0.0000000        41    1
   0.2307692  -0.3330899   0.0000000        42    1
   0.2307692  -0.2398247   0.0000000        43    1
   0.2307692  -0.1465596   0.0000000        44    1
   0.2307692  -0.0532944   0.0000000        45    1
   0.2307692   0.0399708   0.0000000        46    1
   0.3076923   0.1776480   0.0000000        47    1
   0.3076923   0.2709131   0.0000000        48    1
   0.3076923   0.3641783   0.0000000        49    1
   0.3076923   0.4574435   0.0000000        50    1
   0.3076923   0.5507087   0.0000000        51    1
   0.3076923   0.6439738   0.0000000        52    1
   0.3076923   0.7372390   0.0000000        53    1
   0.3076923  -0.3819431   0.0000000        54    1
   0.3076923  -0.2886779   0.0000000        55    1
   0.3076923  -0.1954128   0.0000000        56    1
   0.3076923  -0.1021476   0.0000000        57    1
   0.3076923  -0.0088824   0.0000000        58    1
   0.3076923   0.0843828   0.0000000        59    1
   0.3846154   0.2220599   0.0000000        60    1
[...]
   0.3846154   0.0355296   0.0000000        71    1
   0.3846154   0.1287948   0.0000000        72    1
   0.4615385   0.2664719   0.0000000        73    1
   0.4615385   0.3597371   0.0000000        74    1
   0.4615385   0.4530023   0.0000000        75    1
   0.4615385   0.5462675   0.0000000        76    1
   0.4615385   0.6395326   0.0000000        77    1
   0.4615385   0.7327978   0.0000000        78    1
   0.4615385   0.8260630   0.0000000        79    1
   0.4615385  -0.2931191   0.0000000        80    1
   0.4615385  -0.1998539   0.0000000        81    1
   0.4615385  -0.1065888   0.0000000        82    1
   0.4615385  -0.0133236   0.0000000        83    1
   0.4615385   0.0799416   0.0000000        84    1
   0.4615385   0.1732068   0.0000000        85    1

     Using Slab Decomposition

     bravais-lattice index     =            0
     lattice parameter (alat)  =       8.5529  a.u.
     unit-cell volume          =    2526.9262 (a.u.)^3
     number of atoms/cell      =            5
     number of atomic types    =            2
     number of electrons       =        78.00
     number of Kohn-Sham states=          100
     kinetic-energy cutoff     =      70.0000  Ry
     charge density cutoff     =     280.0000  Ry
     cutoff for Fock operator  =     280.0000  Ry
     scf convergence threshold =      1.0E-07
     mixing beta               =       0.7000
     number of iterations used =            8  plain     mixing
     Exchange-correlation= GAUP
                           (   1   4  20   4   0   0   0)
     EXX-fraction              =        0.24

     celldm(1)=   8.552915  celldm(2)=   0.000000  celldm(3)=   0.000000
     celldm(4)=   0.000000  celldm(5)=   0.000000  celldm(6)=   0.000000

     crystal axes: (cart. coord. in units of alat)
               a(1) = (   1.000000   0.000000   0.000000 )
               a(2) = (  -0.476190   0.824778   0.000000 )
               a(3) = (   0.000000   0.000000   4.896807 )

     reciprocal axes: (cart. coord. in units 2 pi/alat)
               b(1) = (  1.000000  0.577356 -0.000000 )
               b(2) = (  0.000000  1.212447  0.000000 )
               b(3) = (  0.000000 -0.000000  0.204215 )

     PseudoPot. # 1 for Sb read from file:
     /zfs-home/202401017n/pseudos/Sb_ONCV_PBE-1.2.upf
     MD5 check sum: 0417cd6c0fe8ce4611e2b23135f1abd9
     Pseudo is Norm-conserving, Zval = 15.0
     Generated using ONCVPSP code by D. R. Hamann
     Using radial grid of  602 points,  6 beta functions with:
                l(1) =   0
                l(2) =   0
                l(3) =   1
                l(4) =   1
                l(5) =   2
                l(6) =   2

     PseudoPot. # 2 for Te read from file:
     /zfs-home/202401017n/pseudos/Te_ONCV_PBE-1.2.upf
     MD5 check sum: dd4de4dac1e38587f63aaf3700bb29d3
     Pseudo is Norm-conserving, Zval = 16.0
     Generated using ONCVPSP code by D. R. Hamann
     Using radial grid of  602 points,  6 beta functions with:
                l(1) =   0
                l(2) =   0
                l(3) =   1
                l(4) =   1
                l(5) =   2
                l(6) =   2

     atomic species   valence    mass     pseudopotential
     Sb               15.00   121.76000     Sb( 1.00)
     Te               16.00   127.60000     Te( 1.00)

     No symmetry found

                                    s                        frac. trans.

      isym =  1     identity

 cryst.   s( 1) = (     1          0          0      )
                  (     0          1          0      )
                  (     0          0          1      )

 cart.    s( 1) = (  1.0000000  0.0000000  0.0000000 )
                  (  0.0000000  1.0000000  0.0000000 )
                  (  0.0000000  0.0000000  1.0000000 )

   Cartesian axes

     site n.     atom                  positions (alat units)
         1        Sb     tau(   1) = (   0.5941563   0.4140600   2.8819763  )
         2        Te     tau(   2) = (   0.5757813   0.3831770   1.6487259  )
         3        Sb     tau(   3) = (   0.0713597   0.1150985   2.0147862  )
         4        Te     tau(   4) = (   0.0896521   0.1461334   3.2480478  )
         5        Te     tau(   5) = (   0.0946223   0.6770376   2.4483865  )

     Parameters for Dispersion (Grimme-D2) Correction:
       atom      VdW radius       C_6

        Sb         3.555       1333.532
        Te         3.575       1101.101

   Crystallographic axes

     site n.     atom                  positions (cryst. coord.)
         1        Sb     tau(   1) = (  0.8332162  0.5020259  0.5885420  )
         2        Te     tau(   2) = (  0.7970108  0.4645820  0.3366941  )
         3        Sb     tau(   3) = (  0.1378125  0.1395508  0.4114490  )
         4        Te     tau(   4) = (  0.1740231  0.1771791  0.6632992  )
         5        Te     tau(   5) = (  0.4855140  0.8208724  0.4999966  )

     number of k points=    85
                       cart. coord. in units 2pi/alat
        k(    1) = (   0.0000000   0.0000000   0.0000000), wk =   0.0118343
        k(    2) = (   0.0000000   0.0932652   0.0000000), wk =   0.0236686
        k(    3) = (   0.0000000   0.1865304   0.0000000), wk =   0.0236686
        k(    4) = (   0.0000000   0.2797955   0.0000000), wk =   0.0236686
        k(    5) = (   0.0000000   0.3730607   0.0000000), wk =   0.0236686
        k(    6) = (   0.0000000   0.4663259   0.0000000), wk =   0.0236686
        k(    7) = (   0.0000000   0.5595911   0.0000000), wk =   0.0236686
        k(    8) = (   0.0769231   0.0444120   0.0000000), wk =   0.0236686
        k(    9) = (   0.0769231   0.1376772   0.0000000), wk =   0.0236686
        k(   10) = (   0.0769231   0.2309423   0.0000000), wk =   0.0236686
        k(   11) = (   0.0769231   0.3242075   0.0000000), wk =   0.0236686
        k(   12) = (   0.0769231   0.4174727   0.0000000), wk =   0.0236686
        k(   13) = (   0.0769231   0.5107379   0.0000000), wk =   0.0236686
        k(   14) = (   0.0769231   0.6040030   0.0000000), wk =   0.0236686
        k(   15) = (   0.0769231  -0.5151791   0.0000000), wk =   0.0236686
        k(   16) = (   0.0769231  -0.4219139   0.0000000), wk =   0.0236686
        k(   17) = (   0.0769231  -0.3286487   0.0000000), wk =   0.0236686
        k(   18) = (   0.0769231  -0.2353835   0.0000000), wk =   0.0236686
        k(   19) = (   0.0769231  -0.1421184   0.0000000), wk =   0.0236686
        k(   20) = (   0.0769231  -0.0488532   0.0000000), wk =   0.0236686
        k(   21) = (   0.1538462   0.0888240   0.0000000), wk =   0.0236686
        k(   22) = (   0.1538462   0.1820892   0.0000000), wk =   0.0236686
        k(   23) = (   0.1538462   0.2753543   0.0000000), wk =   0.0236686
        k(   24) = (   0.1538462   0.3686195   0.0000000), wk =   0.0236686
        k(   25) = (   0.1538462   0.4618847   0.0000000), wk =   0.0236686
        k(   26) = (   0.1538462   0.5551499   0.0000000), wk =   0.0236686
        k(   27) = (   0.1538462   0.6484150   0.0000000), wk =   0.0236686
        k(   28) = (   0.1538462  -0.4707671   0.0000000), wk =   0.0236686
        k(   29) = (   0.1538462  -0.3775019   0.0000000), wk =   0.0236686
        k(   30) = (   0.1538462  -0.2842367   0.0000000), wk =   0.0236686
        k(   31) = (   0.1538462  -0.1909716   0.0000000), wk =   0.0236686
        k(   32) = (   0.1538462  -0.0977064   0.0000000), wk =   0.0236686
        k(   33) = (   0.1538462  -0.0044412   0.0000000), wk =   0.0236686
        k(   34) = (   0.2307692   0.1332360   0.0000000), wk =   0.0236686
        k(   35) = (   0.2307692   0.2265011   0.0000000), wk =   0.0236686
        k(   36) = (   0.2307692   0.3197663   0.0000000), wk =   0.0236686
        k(   37) = (   0.2307692   0.4130315   0.0000000), wk =   0.0236686
        k(   38) = (   0.2307692   0.5062967   0.0000000), wk =   0.0236686
        k(   39) = (   0.2307692   0.5995618   0.0000000), wk =   0.0236686
        k(   40) = (   0.2307692   0.6928270   0.0000000), wk =   0.0236686
        k(   41) = (   0.2307692  -0.4263551   0.0000000), wk =   0.0236686
        k(   42) = (   0.2307692  -0.3330899   0.0000000), wk =   0.0236686
        k(   43) = (   0.2307692  -0.2398247   0.0000000), wk =   0.0236686
        k(   44) = (   0.2307692  -0.1465596   0.0000000), wk =   0.0236686
        k(   45) = (   0.2307692  -0.0532944   0.0000000), wk =   0.0236686
        k(   46) = (   0.2307692   0.0399708   0.0000000), wk =   0.0236686
        k(   47) = (   0.3076923   0.1776480   0.0000000), wk =   0.0236686
        k(   48) = (   0.3076923   0.2709131   0.0000000), wk =   0.0236686
        k(   49) = (   0.3076923   0.3641783   0.0000000), wk =   0.0236686
        k(   50) = (   0.3076923   0.4574435   0.0000000), wk =   0.0236686
        k(   51) = (   0.3076923   0.5507087   0.0000000), wk =   0.0236686
        k(   52) = (   0.3076923   0.6439738   0.0000000), wk =   0.0236686
        k(   53) = (   0.3076923   0.7372390   0.0000000), wk =   0.0236686
        k(   54) = (   0.3076923  -0.3819431   0.0000000), wk =   0.0236686
        k(   55) = (   0.3076923  -0.2886779   0.0000000), wk =   0.0236686
        k(   56) = (   0.3076923  -0.1954128   0.0000000), wk =   0.0236686
        k(   57) = (   0.3076923  -0.1021476   0.0000000), wk =   0.0236686
        k(   58) = (   0.3076923  -0.0088824   0.0000000), wk =   0.0236686
        k(   59) = (   0.3076923   0.0843828   0.0000000), wk =   0.0236686
        k(   60) = (   0.3846154   0.2220599   0.0000000), wk =   0.0236686
[...]
        k(   71) = (   0.3846154   0.0355296   0.0000000), wk =   0.0236686
        k(   72) = (   0.3846154   0.1287948   0.0000000), wk =   0.0236686
        k(   73) = (   0.4615385   0.2664719   0.0000000), wk =   0.0236686
        k(   74) = (   0.4615385   0.3597371   0.0000000), wk =   0.0236686
        k(   75) = (   0.4615385   0.4530023   0.0000000), wk =   0.0236686
        k(   76) = (   0.4615385   0.5462675   0.0000000), wk =   0.0236686
        k(   77) = (   0.4615385   0.6395326   0.0000000), wk =   0.0236686
        k(   78) = (   0.4615385   0.7327978   0.0000000), wk =   0.0236686
        k(   79) = (   0.4615385   0.8260630   0.0000000), wk =   0.0236686
        k(   80) = (   0.4615385  -0.2931191   0.0000000), wk =   0.0236686
        k(   81) = (   0.4615385  -0.1998539   0.0000000), wk =   0.0236686
        k(   82) = (   0.4615385  -0.1065888   0.0000000), wk =   0.0236686
        k(   83) = (   0.4615385  -0.0133236   0.0000000), wk =   0.0236686
        k(   84) = (   0.4615385   0.0799416   0.0000000), wk =   0.0236686
        k(   85) = (   0.4615385   0.1732068   0.0000000), wk =   0.0236686

                       cryst. coord.
        k(    1) = (   0.0000000   0.0000000   0.0000000), wk =   0.0118343
        k(    2) = (   0.0000000   0.0769231   0.0000000), wk =   0.0236686
        k(    3) = (   0.0000000   0.1538462   0.0000000), wk =   0.0236686
        k(    4) = (   0.0000000   0.2307692   0.0000000), wk =   0.0236686
        k(    5) = (   0.0000000   0.3076923   0.0000000), wk =   0.0236686
        k(    6) = (   0.0000000   0.3846154   0.0000000), wk =   0.0236686
        k(    7) = (   0.0000000   0.4615385   0.0000000), wk =   0.0236686
        k(    8) = (   0.0769231   0.0000000   0.0000000), wk =   0.0236686
        k(    9) = (   0.0769231   0.0769231   0.0000000), wk =   0.0236686
        k(   10) = (   0.0769231   0.1538462   0.0000000), wk =   0.0236686
        k(   11) = (   0.0769231   0.2307692   0.0000000), wk =   0.0236686
        k(   12) = (   0.0769231   0.3076923   0.0000000), wk =   0.0236686
        k(   13) = (   0.0769231   0.3846154   0.0000000), wk =   0.0236686
        k(   14) = (   0.0769231   0.4615385   0.0000000), wk =   0.0236686
        k(   15) = (   0.0769231  -0.4615385   0.0000000), wk =   0.0236686
        k(   16) = (   0.0769231  -0.3846154   0.0000000), wk =   0.0236686
        k(   17) = (   0.0769231  -0.3076923   0.0000000), wk =   0.0236686
        k(   18) = (   0.0769231  -0.2307692   0.0000000), wk =   0.0236686
        k(   19) = (   0.0769231  -0.1538462   0.0000000), wk =   0.0236686
        k(   20) = (   0.0769231  -0.0769231   0.0000000), wk =   0.0236686
        k(   21) = (   0.1538462   0.0000000   0.0000000), wk =   0.0236686
        k(   22) = (   0.1538462   0.0769231   0.0000000), wk =   0.0236686
        k(   23) = (   0.1538462   0.1538462   0.0000000), wk =   0.0236686
        k(   24) = (   0.1538462   0.2307692   0.0000000), wk =   0.0236686
        k(   25) = (   0.1538462   0.3076923   0.0000000), wk =   0.0236686
        k(   26) = (   0.1538462   0.3846154   0.0000000), wk =   0.0236686
        k(   27) = (   0.1538462   0.4615385   0.0000000), wk =   0.0236686
        k(   28) = (   0.1538462  -0.4615385   0.0000000), wk =   0.0236686
        k(   29) = (   0.1538462  -0.3846154   0.0000000), wk =   0.0236686
        k(   30) = (   0.1538462  -0.3076923   0.0000000), wk =   0.0236686
        k(   31) = (   0.1538462  -0.2307692   0.0000000), wk =   0.0236686
        k(   32) = (   0.1538462  -0.1538462   0.0000000), wk =   0.0236686
        k(   33) = (   0.1538462  -0.0769231   0.0000000), wk =   0.0236686
        k(   34) = (   0.2307692  -0.0000000   0.0000000), wk =   0.0236686
        k(   35) = (   0.2307692   0.0769231   0.0000000), wk =   0.0236686
        k(   36) = (   0.2307692   0.1538462   0.0000000), wk =   0.0236686
        k(   37) = (   0.2307692   0.2307692   0.0000000), wk =   0.0236686
        k(   38) = (   0.2307692   0.3076923   0.0000000), wk =   0.0236686
        k(   39) = (   0.2307692   0.3846154   0.0000000), wk =   0.0236686
        k(   40) = (   0.2307692   0.4615385   0.0000000), wk =   0.0236686
        k(   41) = (   0.2307692  -0.4615385   0.0000000), wk =   0.0236686
        k(   42) = (   0.2307692  -0.3846154   0.0000000), wk =   0.0236686
        k(   43) = (   0.2307692  -0.3076923   0.0000000), wk =   0.0236686
        k(   44) = (   0.2307692  -0.2307692   0.0000000), wk =   0.0236686
        k(   45) = (   0.2307692  -0.1538462   0.0000000), wk =   0.0236686
        k(   46) = (   0.2307692  -0.0769231   0.0000000), wk =   0.0236686
        k(   47) = (   0.3076923   0.0000000   0.0000000), wk =   0.0236686
        k(   48) = (   0.3076923   0.0769231   0.0000000), wk =   0.0236686
        k(   49) = (   0.3076923   0.1538462   0.0000000), wk =   0.0236686
        k(   50) = (   0.3076923   0.2307692   0.0000000), wk =   0.0236686
        k(   51) = (   0.3076923   0.3076923   0.0000000), wk =   0.0236686
        k(   52) = (   0.3076923   0.3846154   0.0000000), wk =   0.0236686
        k(   53) = (   0.3076923   0.4615385   0.0000000), wk =   0.0236686
        k(   54) = (   0.3076923  -0.4615385   0.0000000), wk =   0.0236686
        k(   55) = (   0.3076923  -0.3846154   0.0000000), wk =   0.0236686
        k(   56) = (   0.3076923  -0.3076923   0.0000000), wk =   0.0236686
        k(   57) = (   0.3076923  -0.2307692   0.0000000), wk =   0.0236686
        k(   58) = (   0.3076923  -0.1538462   0.0000000), wk =   0.0236686
        k(   59) = (   0.3076923  -0.0769231   0.0000000), wk =   0.0236686
        k(   60) = (   0.3846154   0.0000000   0.0000000), wk =   0.0236686
[...]
        k(   71) = (   0.3846154  -0.1538462   0.0000000), wk =   0.0236686
        k(   72) = (   0.3846154  -0.0769231   0.0000000), wk =   0.0236686
        k(   73) = (   0.4615385  -0.0000000   0.0000000), wk =   0.0236686
        k(   74) = (   0.4615385   0.0769231   0.0000000), wk =   0.0236686
        k(   75) = (   0.4615385   0.1538462   0.0000000), wk =   0.0236686
        k(   76) = (   0.4615385   0.2307692   0.0000000), wk =   0.0236686
        k(   77) = (   0.4615385   0.3076923   0.0000000), wk =   0.0236686
        k(   78) = (   0.4615385   0.3846154   0.0000000), wk =   0.0236686
        k(   79) = (   0.4615385   0.4615385   0.0000000), wk =   0.0236686
        k(   80) = (   0.4615385  -0.4615385   0.0000000), wk =   0.0236686
        k(   81) = (   0.4615385  -0.3846154   0.0000000), wk =   0.0236686
        k(   82) = (   0.4615385  -0.3076923   0.0000000), wk =   0.0236686
        k(   83) = (   0.4615385  -0.2307692   0.0000000), wk =   0.0236686
        k(   84) = (   0.4615385  -0.1538462   0.0000000), wk =   0.0236686
        k(   85) = (   0.4615385  -0.0769231   0.0000000), wk =   0.0236686

     Initial potential from superposition of free atoms

     starting charge      77.7638, renormalised to      78.0000

     negative rho (up, down):  6.675E-04 0.000E+00
     Starting wfcs are random

     Self-consistent Calculation

     iteration #  1     ecut=    70.00 Ry     beta= 0.70
     Davidson diagonalization with overlap

     ethr =  1.00E-02,  avg # of iterations =  9.1

     Threshold (ethr) on eigenvalues was too large:
     Diagonalizing with lowered threshold

     Davidson diagonalization with overlap

[...]

     negative rho (up, down):  5.551E-05 0.000E+00

     total energy              =    -806.57217076 Ry
     estimated scf accuracy    <       0.09039829 Ry

[...]

     c_bands:  1 eigenvalues not converged
     c_bands:  1 eigenvalues not converged
     c_bands:  1 eigenvalues not converged
     ethr =  1.16E-04,  avg # of iterations = 11.8

[...]

     negative rho (up, down):  2.362E-06 0.000E+00

[...]

     End of self-consistent calculation

          k = 0.0000 0.0000 0.0000 ( 24991 PWs)   bands (ev):

   -34.9028 -34.9026 -34.9023 -34.9021 -34.8667 -34.8666 -34.8587 -34.8584
   -34.8488 -34.8486 -34.8010 -34.7985 -34.7811 -34.7612 -34.7586 -27.6948
   -27.6945 -27.6931 -27.6928 -27.6876 -27.6873 -27.6827 -27.6826 -27.6793
   -27.6790 -10.7844 -10.2402  -9.1722  -6.4503  -5.1404  -0.3968  -0.1772
    -0.0424   0.1183   0.2411   0.5597   0.5737   0.7715   1.0038   1.8319
     2.4709   2.6421   3.2900   3.6210   3.7242   6.0530   6.2306   6.8846
     7.0527   7.3946   7.7233   8.1686   8.3774   8.4310   8.5007   9.0874
     9.2753   9.5123   9.8727   9.9015  10.3621  10.6581  11.1852  11.2303
    11.3597  11.5476  12.6680  12.7029  13.4509  13.7525  14.0187  14.0706
    14.3058  14.8586  15.2192  15.5488  15.7699  15.9029  15.9337  16.1643
    16.4561  16.4644  16.5898  16.6458  16.7769  16.9539  17.0070  17.1008
    17.2503  17.3796  17.4420  17.6022  17.6903  17.8994  18.4461  18.4759
    18.5831  18.7776  18.9789  19.0404

     occupation numbers
     1.0000   1.0000   1.0000   1.0000   1.0000   1.0000   1.0000   1.0000
     1.0000   1.0000   1.0000   1.0000   1.0000   1.0000   1.0000   1.0000
     1.0000   1.0000   1.0000   1.0000   1.0000   1.0000   1.0000   1.0000
     1.0000   1.0000   1.0000   1.0000   1.0000   1.0000   1.0000   1.0000
     1.0000   1.0000   1.0000   1.0000   1.0000   1.0000   1.0000   0.0000
     0.0000   0.0000   0.0000   0.0000   0.0000   0.0000   0.0000   0.0000
     0.0000   0.0000   0.0000   0.0000   0.0000   0.0000   0.0000   0.0000
     0.0000   0.0000   0.0000   0.0000   0.0000   0.0000   0.0000   0.0000
     0.0000   0.0000   0.0000   0.0000   0.0000   0.0000   0.0000   0.0000
     0.0000   0.0000   0.0000   0.0000   0.0000   0.0000   0.0000   0.0000
     0.0000   0.0000   0.0000   0.0000   0.0000   0.0000   0.0000   0.0000
     0.0000   0.0000   0.0000   0.0000   0.0000   0.0000   0.0000   0.0000
     0.0000   0.0000   0.0000   0.0000

[...]

     highest occupied, lowest unoccupied level (ev):     1.5232    1.8319

!    total energy              =    -806.61251921 Ry
     estimated scf accuracy    <          6.3E-09 Ry

     convergence has been achieved in  10 iterations

     Using ACE for calculation of exact exchange

     EXX: now go back to refine exchange calculation

[...]

     Using ACE for calculation of exact exchange
     ACE projected onto   100 (nbndproj) and applied to   100 (nbnd) bands

     total energy              =    -805.31266876 Ry
     Harris-Foulkes estimate   =    -805.31268076 Ry
     est. exchange err (dexx)  =       0.00170051 Ry
     - averaged Fock potential =      22.86785599 Ry
     + Fock energy (ACE)       =     -11.45609419 Ry

[...]

     total energy              =    -805.31201788 Ry
     Harris-Foulkes estimate   =    -805.31201797 Ry
     est. exchange err (dexx)  =       0.00000048 Ry
     - averaged Fock potential =      22.92242773 Ry
     + Fock energy (ACE)       =     -11.46126450 Ry

     EXX: now go back to refine exchange calculation

     Self-consistent Calculation

[...]

     c_bands:  1 eigenvalues not converged
     ethr =  6.59E-10,  avg # of iterations =  7.9

[...]

     total energy              =    -805.31201723 Ry
     estimated scf accuracy    <       0.00000086 Ry

     iteration #  4     ecut=    70.00 Ry     beta= 0.70
     Davidson diagonalization with overlap

     ethr =  8.65E-10,  avg # of iterations =  5.5

     End of self-consistent calculation

[...]

          k = 0.4615 0.1732 0.0000 ( 24992 PWs)   bands (ev):

   -36.7101 -36.7096 -36.7020 -36.7015 -36.6582 -36.6579 -36.6558 -36.6552
   -36.6399 -36.6394 -36.4266 -36.4207 -36.4144 -36.3841 -36.3785 -29.4275
   -29.4274 -29.4257 -29.4249 -29.4171 -29.4157 -29.4074 -29.4067 -29.3914
   -29.3895 -11.5272 -11.2682 -10.8702  -9.2120  -8.6190  -4.3533  -3.1008
    -2.8560  -2.6246  -1.9904  -1.5064  -0.4452  -0.2004   0.4573   2.8305
     2.9375   3.3742   4.5087   4.7950   5.5388   5.8428   7.2792   7.8680
     8.2174   8.8262   9.0107   9.1148   9.6581   9.9301  10.2749  10.4035
    10.7972  11.0407  11.2727  11.4715  11.6415  11.9171  12.0733  12.4740
    12.5256  12.6466  13.0642  13.1616  13.5488  13.7353  13.9676  14.2001
    14.3383  14.4122  14.6765  15.0151  15.2344  15.2932  15.6505  15.8832
    16.0219  16.1554  16.3097  16.4328  16.7163  16.8450  16.9038  17.0279
    17.2610  17.4185  17.7716  17.9235  17.9457  18.5720  18.6533  18.8223
    19.0902  19.2047  19.3451  19.4447

     occupation numbers
     1.0000   1.0000   1.0000   1.0000   1.0000   1.0000   1.0000   1.0000
     1.0000   1.0000   1.0000   1.0000   1.0000   1.0000   1.0000   1.0000
     1.0000   1.0000   1.0000   1.0000   1.0000   1.0000   1.0000   1.0000
     1.0000   1.0000   1.0000   1.0000   1.0000   1.0000   1.0000   1.0000
     1.0000   1.0000   1.0000   1.0000   1.0000   1.0000   1.0000   0.0000
     0.0000   0.0000   0.0000   0.0000   0.0000   0.0000   0.0000   0.0000
     0.0000   0.0000   0.0000   0.0000   0.0000   0.0000   0.0000   0.0000
     0.0000   0.0000   0.0000   0.0000   0.0000   0.0000   0.0000   0.0000
     0.0000   0.0000   0.0000   0.0000   0.0000   0.0000   0.0000   0.0000
     0.0000   0.0000   0.0000   0.0000   0.0000   0.0000   0.0000   0.0000
     0.0000   0.0000   0.0000   0.0000   0.0000   0.0000   0.0000   0.0000
     0.0000   0.0000   0.0000   0.0000   0.0000   0.0000   0.0000   0.0000
     0.0000   0.0000   0.0000   0.0000

     highest occupied, lowest unoccupied level (ev):     0.7320    1.6303

!    total energy              =    -805.31201800 Ry
     estimated scf accuracy    <       0.00000001 Ry

     convergence has been achieved in   4 iterations

     Using ACE for calculation of exact exchange
     ACE projected onto   100 (nbndproj) and applied to   100 (nbnd) bands

!!   total energy              =    -805.31201809 Ry
     Harris-Foulkes estimate   =    -805.31201740 Ry
     est. exchange err (dexx)  =       0.00000009 Ry
     - averaged Fock potential =      22.92255146 Ry
     + Fock energy (ACE)       =     -11.46128705 Ry

     EXX self-consistency reached

     Writing all to output data dir tmp/Sb2Te3-uatsx-c4-5.0.save/ :
     XML data file, charge density, pseudopotentials, collected wavefunctions

     General routines

     Parallel routines

     EXX routines

   This run was terminated on:   8: 6:12  20May2025

   JOB DONE.