     Program PWSCF v.7.3.1 starts on 20May2025 at  2:31:13

     Waiting for input...
     Reading input from standard input

     Current dimensions of program PWSCF are:
     Max number of different atomic species (ntypx) = 10
     Max number of k-points (npk) =  40000
     Max angular momentum in pseudopotentials (lmaxx) =  4

     IMPORTANT: XC functional enforced from input :
     Exchange-correlation= GAUP
                           (   1   4  20   4   0   0   0)
     EXX-fraction              =        0.24
     Any further DFT definition will be discarded
     Please, verify this is what you really want

     K-points division:     npool     =       2
     R & G space division:  proc/nbgrp/npool/nimage =      84
     Subspace diagonalization in iterative solution of the eigenvalue problem:
     a serial algorithm will be used

     EXX: q-point mesh:     1    1    1
     EXX: setup a grid of 85 q-points centered on each k-point
     (k+q)-points:
   0.0000000   0.0000000   0.0000000         1    1
   0.0000000   0.0906005   0.0000000         2    1
   0.0000000   0.1812009   0.0000000         3    1
   0.0000000   0.2718014   0.0000000         4    1
   0.0000000   0.3624018   0.0000000         5    1
   0.0000000   0.4530023   0.0000000         6    1
   0.0000000   0.5436027   0.0000000         7    1
   0.0769231   0.0444120   0.0000000         8    1
   0.0769231   0.1350124   0.0000000         9    1
   0.0769231   0.2256129   0.0000000        10    1
   0.0769231   0.3162134   0.0000000        11    1
   0.0769231   0.4068138   0.0000000        12    1
   0.0769231   0.4974143   0.0000000        13    1
   0.0769231   0.5880147   0.0000000        14    1
   0.0769231  -0.4991908   0.0000000        15    1
   0.0769231  -0.4085903   0.0000000        16    1
   0.0769231  -0.3179898   0.0000000        17    1
   0.0769231  -0.2273894   0.0000000        18    1
   0.0769231  -0.1367889   0.0000000        19    1
   0.0769231  -0.0461885   0.0000000        20    1
   0.1538462   0.0888240   0.0000000        21    1
   0.1538462   0.1794244   0.0000000        22    1
   0.1538462   0.2700249   0.0000000        23    1
   0.1538462   0.3606253   0.0000000        24    1
   0.1538462   0.4512258   0.0000000        25    1
   0.1538462   0.5418263   0.0000000        26    1
   0.1538462   0.6324267   0.0000000        27    1
   0.1538462  -0.4547788   0.0000000        28    1
   0.1538462  -0.3641783   0.0000000        29    1
   0.1538462  -0.2735779   0.0000000        30    1
   0.1538462  -0.1829774   0.0000000        31    1
   0.1538462  -0.0923769   0.0000000        32    1
   0.1538462  -0.0017765   0.0000000        33    1
   0.2307692   0.1332360   0.0000000        34    1
   0.2307692   0.2238364   0.0000000        35    1
   0.2307692   0.3144369   0.0000000        36    1
   0.2307692   0.4050373   0.0000000        37    1
   0.2307692   0.4956378   0.0000000        38    1
   0.2307692   0.5862383   0.0000000        39    1
   0.2307692   0.6768387   0.0000000        40    1
   0.2307692  -0.4103668   0.0000000        41    1
   0.2307692  -0.3197663   0.0000000        42    1
   0.2307692  -0.2291659   0.0000000        43    1
   0.2307692  -0.1385654   0.0000000        44    1
   0.2307692  -0.0479649   0.0000000        45    1
   0.2307692   0.0426355   0.0000000        46    1
   0.3076923   0.1776480   0.0000000        47    1
   0.3076923   0.2682484   0.0000000        48    1
   0.3076923   0.3588489   0.0000000        49    1
   0.3076923   0.4494493   0.0000000        50    1
   0.3076923   0.5400498   0.0000000        51    1
   0.3076923   0.6306502   0.0000000        52    1
   0.3076923   0.7212507   0.0000000        53    1
   0.3076923  -0.3659548   0.0000000        54    1
   0.3076923  -0.2753543   0.0000000        55    1
   0.3076923  -0.1847539   0.0000000        56    1
   0.3076923  -0.0941534   0.0000000        57    1
   0.3076923  -0.0035530   0.0000000        58    1
   0.3076923   0.0870475   0.0000000        59    1
   0.3846154   0.2220599   0.0000000        60    1
[...]
   0.3846154   0.0408590   0.0000000        71    1
   0.3846154   0.1314595   0.0000000        72    1
   0.4615385   0.2664719   0.0000000        73    1
   0.4615385   0.3570724   0.0000000        74    1
   0.4615385   0.4476728   0.0000000        75    1
   0.4615385   0.5382733   0.0000000        76    1
   0.4615385   0.6288738   0.0000000        77    1
   0.4615385   0.7194742   0.0000000        78    1
   0.4615385   0.8100747   0.0000000        79    1
   0.4615385  -0.2771308   0.0000000        80    1
   0.4615385  -0.1865304   0.0000000        81    1
   0.4615385  -0.0959299   0.0000000        82    1
   0.4615385  -0.0053294   0.0000000        83    1
   0.4615385   0.0852710   0.0000000        84    1
   0.4615385   0.1758715   0.0000000        85    1

     Using Slab Decomposition

     bravais-lattice index     =            0
     lattice parameter (alat)  =       8.3085  a.u.
     unit-cell volume          =    2454.7283 (a.u.)^3
     number of atoms/cell      =            5
     number of atomic types    =            2
     number of electrons       =        78.00
     number of Kohn-Sham states=          100
     kinetic-energy cutoff     =      70.0000  Ry
     charge density cutoff     =     280.0000  Ry
     cutoff for Fock operator  =     280.0000  Ry
     scf convergence threshold =      1.0E-07
     mixing beta               =       0.7000
     number of iterations used =            8  plain     mixing
     Exchange-correlation= GAUP
                           (   1   4  20   4   0   0   0)
     EXX-fraction              =        0.24

     celldm(1)=   8.308546  celldm(2)=   0.000000  celldm(3)=   0.000000
     celldm(4)=   0.000000  celldm(5)=   0.000000  celldm(6)=   0.000000

     crystal axes: (cart. coord. in units of alat)
               a(1) = (   1.000000   0.000000   0.000000 )
               a(2) = (  -0.490196   0.849036   0.000000 )
               a(3) = (   0.000000   0.000000   5.040830 )

     reciprocal axes: (cart. coord. in units 2 pi/alat)
               b(1) = (  1.000000  0.577356 -0.000000 )
               b(2) = (  0.000000  1.177806  0.000000 )
               b(3) = (  0.000000 -0.000000  0.198380 )

     PseudoPot. # 1 for Sb read from file:
     /zfs-home/202401017n/pseudos/Sb_ONCV_PBE-1.2.upf
     MD5 check sum: 0417cd6c0fe8ce4611e2b23135f1abd9
     Pseudo is Norm-conserving, Zval = 15.0
     Generated using ONCVPSP code by D. R. Hamann
     Using radial grid of  602 points,  6 beta functions with:
                l(1) =   0
                l(2) =   0
                l(3) =   1
                l(4) =   1
                l(5) =   2
                l(6) =   2

     PseudoPot. # 2 for Te read from file:
     /zfs-home/202401017n/pseudos/Te_ONCV_PBE-1.2.upf
     MD5 check sum: dd4de4dac1e38587f63aaf3700bb29d3
     Pseudo is Norm-conserving, Zval = 16.0
     Generated using ONCVPSP code by D. R. Hamann
     Using radial grid of  602 points,  6 beta functions with:
                l(1) =   0
                l(2) =   0
                l(3) =   1
                l(4) =   1
                l(5) =   2
                l(6) =   2

     atomic species   valence    mass     pseudopotential
     Sb               15.00   121.76000     Sb( 1.00)
     Te               16.00   127.60000     Te( 1.00)

     No symmetry found

                                    s                        frac. trans.

      isym =  1     identity

 cryst.   s( 1) = (     1          0          0      )
                  (     0          1          0      )
                  (     0          0          1      )

 cart.    s( 1) = (  1.0000000  0.0000000  0.0000000 )
                  (  0.0000000  1.0000000  0.0000000 )
                  (  0.0000000  0.0000000  1.0000000 )

   Cartesian axes

     site n.     atom                  positions (alat units)
         1        Sb     tau(   1) = (   0.5829733   0.4189608   2.9724649  )
         2        Te     tau(   2) = (   0.5752175   0.4057666   1.6850437  )
         3        Sb     tau(   3) = (   0.0736071   0.1257310   2.0683360  )
         4        Te     tau(   4) = (   0.0811854   0.1390911   3.3558017  )
         5        Te     tau(   5) = (   0.0831178   0.6970014   2.5203330  )

     Parameters for Dispersion (Grimme-D2) Correction:
       atom      VdW radius       C_6

        Sb         3.555       1333.532
        Te         3.575       1101.101

   Crystallographic axes

     site n.     atom                  positions (cryst. coord.)
         1        Sb     tau(   1) = (  0.8248627  0.4934545  0.5896776  )
         2        Te     tau(   2) = (  0.8094892  0.4779143  0.3342790  )
         3        Sb     tau(   3) = (  0.1461986  0.1480867  0.4103165  )
         4        Te     tau(   4) = (  0.1614904  0.1638223  0.6657240  )
         5        Te     tau(   5) = (  0.4855356  0.8209324  0.4999837  )

     number of k points=    85
                       cart. coord. in units 2pi/alat
        k(    1) = (   0.0000000   0.0000000   0.0000000), wk =   0.0118343
        k(    2) = (   0.0000000   0.0906005   0.0000000), wk =   0.0236686
        k(    3) = (   0.0000000   0.1812009   0.0000000), wk =   0.0236686
        k(    4) = (   0.0000000   0.2718014   0.0000000), wk =   0.0236686
        k(    5) = (   0.0000000   0.3624018   0.0000000), wk =   0.0236686
        k(    6) = (   0.0000000   0.4530023   0.0000000), wk =   0.0236686
        k(    7) = (   0.0000000   0.5436027   0.0000000), wk =   0.0236686
        k(    8) = (   0.0769231   0.0444120   0.0000000), wk =   0.0236686
        k(    9) = (   0.0769231   0.1350124   0.0000000), wk =   0.0236686
        k(   10) = (   0.0769231   0.2256129   0.0000000), wk =   0.0236686
        k(   11) = (   0.0769231   0.3162134   0.0000000), wk =   0.0236686
        k(   12) = (   0.0769231   0.4068138   0.0000000), wk =   0.0236686
        k(   13) = (   0.0769231   0.4974143   0.0000000), wk =   0.0236686
        k(   14) = (   0.0769231   0.5880147   0.0000000), wk =   0.0236686
        k(   15) = (   0.0769231  -0.4991908   0.0000000), wk =   0.0236686
        k(   16) = (   0.0769231  -0.4085903   0.0000000), wk =   0.0236686
        k(   17) = (   0.0769231  -0.3179898   0.0000000), wk =   0.0236686
        k(   18) = (   0.0769231  -0.2273894   0.0000000), wk =   0.0236686
        k(   19) = (   0.0769231  -0.1367889   0.0000000), wk =   0.0236686
        k(   20) = (   0.0769231  -0.0461885   0.0000000), wk =   0.0236686
        k(   21) = (   0.1538462   0.0888240   0.0000000), wk =   0.0236686
        k(   22) = (   0.1538462   0.1794244   0.0000000), wk =   0.0236686
        k(   23) = (   0.1538462   0.2700249   0.0000000), wk =   0.0236686
        k(   24) = (   0.1538462   0.3606253   0.0000000), wk =   0.0236686
        k(   25) = (   0.1538462   0.4512258   0.0000000), wk =   0.0236686
        k(   26) = (   0.1538462   0.5418263   0.0000000), wk =   0.0236686
        k(   27) = (   0.1538462   0.6324267   0.0000000), wk =   0.0236686
        k(   28) = (   0.1538462  -0.4547788   0.0000000), wk =   0.0236686
        k(   29) = (   0.1538462  -0.3641783   0.0000000), wk =   0.0236686
        k(   30) = (   0.1538462  -0.2735779   0.0000000), wk =   0.0236686
        k(   31) = (   0.1538462  -0.1829774   0.0000000), wk =   0.0236686
        k(   32) = (   0.1538462  -0.0923769   0.0000000), wk =   0.0236686
        k(   33) = (   0.1538462  -0.0017765   0.0000000), wk =   0.0236686
        k(   34) = (   0.2307692   0.1332360   0.0000000), wk =   0.0236686
        k(   35) = (   0.2307692   0.2238364   0.0000000), wk =   0.0236686
        k(   36) = (   0.2307692   0.3144369   0.0000000), wk =   0.0236686
        k(   37) = (   0.2307692   0.4050373   0.0000000), wk =   0.0236686
        k(   38) = (   0.2307692   0.4956378   0.0000000), wk =   0.0236686
        k(   39) = (   0.2307692   0.5862383   0.0000000), wk =   0.0236686
        k(   40) = (   0.2307692   0.6768387   0.0000000), wk =   0.0236686
        k(   41) = (   0.2307692  -0.4103668   0.0000000), wk =   0.0236686
        k(   42) = (   0.2307692  -0.3197663   0.0000000), wk =   0.0236686
        k(   43) = (   0.2307692  -0.2291659   0.0000000), wk =   0.0236686
        k(   44) = (   0.2307692  -0.1385654   0.0000000), wk =   0.0236686
        k(   45) = (   0.2307692  -0.0479649   0.0000000), wk =   0.0236686
        k(   46) = (   0.2307692   0.0426355   0.0000000), wk =   0.0236686
        k(   47) = (   0.3076923   0.1776480   0.0000000), wk =   0.0236686
        k(   48) = (   0.3076923   0.2682484   0.0000000), wk =   0.0236686
        k(   49) = (   0.3076923   0.3588489   0.0000000), wk =   0.0236686
        k(   50) = (   0.3076923   0.4494493   0.0000000), wk =   0.0236686
        k(   51) = (   0.3076923   0.5400498   0.0000000), wk =   0.0236686
        k(   52) = (   0.3076923   0.6306502   0.0000000), wk =   0.0236686
        k(   53) = (   0.3076923   0.7212507   0.0000000), wk =   0.0236686
        k(   54) = (   0.3076923  -0.3659548   0.0000000), wk =   0.0236686
        k(   55) = (   0.3076923  -0.2753543   0.0000000), wk =   0.0236686
        k(   56) = (   0.3076923  -0.1847539   0.0000000), wk =   0.0236686
        k(   57) = (   0.3076923  -0.0941534   0.0000000), wk =   0.0236686
        k(   58) = (   0.3076923  -0.0035530   0.0000000), wk =   0.0236686
        k(   59) = (   0.3076923   0.0870475   0.0000000), wk =   0.0236686
        k(   60) = (   0.3846154   0.2220599   0.0000000), wk =   0.0236686
[...]
        k(   71) = (   0.3846154   0.0408590   0.0000000), wk =   0.0236686
        k(   72) = (   0.3846154   0.1314595   0.0000000), wk =   0.0236686
        k(   73) = (   0.4615385   0.2664719   0.0000000), wk =   0.0236686
        k(   74) = (   0.4615385   0.3570724   0.0000000), wk =   0.0236686
        k(   75) = (   0.4615385   0.4476728   0.0000000), wk =   0.0236686
        k(   76) = (   0.4615385   0.5382733   0.0000000), wk =   0.0236686
        k(   77) = (   0.4615385   0.6288738   0.0000000), wk =   0.0236686
        k(   78) = (   0.4615385   0.7194742   0.0000000), wk =   0.0236686
        k(   79) = (   0.4615385   0.8100747   0.0000000), wk =   0.0236686
        k(   80) = (   0.4615385  -0.2771308   0.0000000), wk =   0.0236686
        k(   81) = (   0.4615385  -0.1865304   0.0000000), wk =   0.0236686
        k(   82) = (   0.4615385  -0.0959299   0.0000000), wk =   0.0236686
        k(   83) = (   0.4615385  -0.0053294   0.0000000), wk =   0.0236686
        k(   84) = (   0.4615385   0.0852710   0.0000000), wk =   0.0236686
        k(   85) = (   0.4615385   0.1758715   0.0000000), wk =   0.0236686

                       cryst. coord.
        k(    1) = (   0.0000000   0.0000000   0.0000000), wk =   0.0118343
        k(    2) = (   0.0000000   0.0769231   0.0000000), wk =   0.0236686
        k(    3) = (   0.0000000   0.1538462   0.0000000), wk =   0.0236686
        k(    4) = (   0.0000000   0.2307692   0.0000000), wk =   0.0236686
        k(    5) = (   0.0000000   0.3076923   0.0000000), wk =   0.0236686
        k(    6) = (   0.0000000   0.3846154   0.0000000), wk =   0.0236686
        k(    7) = (   0.0000000   0.4615385   0.0000000), wk =   0.0236686
        k(    8) = (   0.0769231   0.0000000   0.0000000), wk =   0.0236686
        k(    9) = (   0.0769231   0.0769231   0.0000000), wk =   0.0236686
        k(   10) = (   0.0769231   0.1538462   0.0000000), wk =   0.0236686
        k(   11) = (   0.0769231   0.2307692   0.0000000), wk =   0.0236686
        k(   12) = (   0.0769231   0.3076923   0.0000000), wk =   0.0236686
        k(   13) = (   0.0769231   0.3846154   0.0000000), wk =   0.0236686
        k(   14) = (   0.0769231   0.4615385   0.0000000), wk =   0.0236686
        k(   15) = (   0.0769231  -0.4615385   0.0000000), wk =   0.0236686
        k(   16) = (   0.0769231  -0.3846154   0.0000000), wk =   0.0236686
        k(   17) = (   0.0769231  -0.3076923   0.0000000), wk =   0.0236686
        k(   18) = (   0.0769231  -0.2307692   0.0000000), wk =   0.0236686
        k(   19) = (   0.0769231  -0.1538462   0.0000000), wk =   0.0236686
        k(   20) = (   0.0769231  -0.0769231   0.0000000), wk =   0.0236686
        k(   21) = (   0.1538462   0.0000000   0.0000000), wk =   0.0236686
        k(   22) = (   0.1538462   0.0769231   0.0000000), wk =   0.0236686
        k(   23) = (   0.1538462   0.1538462   0.0000000), wk =   0.0236686
        k(   24) = (   0.1538462   0.2307692   0.0000000), wk =   0.0236686
        k(   25) = (   0.1538462   0.3076923   0.0000000), wk =   0.0236686
        k(   26) = (   0.1538462   0.3846154   0.0000000), wk =   0.0236686
        k(   27) = (   0.1538462   0.4615385   0.0000000), wk =   0.0236686
        k(   28) = (   0.1538462  -0.4615385   0.0000000), wk =   0.0236686
        k(   29) = (   0.1538462  -0.3846154   0.0000000), wk =   0.0236686
        k(   30) = (   0.1538462  -0.3076923   0.0000000), wk =   0.0236686
        k(   31) = (   0.1538462  -0.2307692   0.0000000), wk =   0.0236686
        k(   32) = (   0.1538462  -0.1538462   0.0000000), wk =   0.0236686
        k(   33) = (   0.1538462  -0.0769231   0.0000000), wk =   0.0236686
        k(   34) = (   0.2307692   0.0000000   0.0000000), wk =   0.0236686
        k(   35) = (   0.2307692   0.0769231   0.0000000), wk =   0.0236686
        k(   36) = (   0.2307692   0.1538462   0.0000000), wk =   0.0236686
        k(   37) = (   0.2307692   0.2307692   0.0000000), wk =   0.0236686
        k(   38) = (   0.2307692   0.3076923   0.0000000), wk =   0.0236686
        k(   39) = (   0.2307692   0.3846154   0.0000000), wk =   0.0236686
        k(   40) = (   0.2307692   0.4615385   0.0000000), wk =   0.0236686
        k(   41) = (   0.2307692  -0.4615385   0.0000000), wk =   0.0236686
        k(   42) = (   0.2307692  -0.3846154   0.0000000), wk =   0.0236686
        k(   43) = (   0.2307692  -0.3076923   0.0000000), wk =   0.0236686
        k(   44) = (   0.2307692  -0.2307692   0.0000000), wk =   0.0236686
        k(   45) = (   0.2307692  -0.1538462   0.0000000), wk =   0.0236686
        k(   46) = (   0.2307692  -0.0769231   0.0000000), wk =   0.0236686
        k(   47) = (   0.3076923   0.0000000   0.0000000), wk =   0.0236686
        k(   48) = (   0.3076923   0.0769231   0.0000000), wk =   0.0236686
        k(   49) = (   0.3076923   0.1538462   0.0000000), wk =   0.0236686
        k(   50) = (   0.3076923   0.2307692   0.0000000), wk =   0.0236686
        k(   51) = (   0.3076923   0.3076923   0.0000000), wk =   0.0236686
        k(   52) = (   0.3076923   0.3846154   0.0000000), wk =   0.0236686
        k(   53) = (   0.3076923   0.4615385   0.0000000), wk =   0.0236686
        k(   54) = (   0.3076923  -0.4615385   0.0000000), wk =   0.0236686
        k(   55) = (   0.3076923  -0.3846154   0.0000000), wk =   0.0236686
        k(   56) = (   0.3076923  -0.3076923   0.0000000), wk =   0.0236686
        k(   57) = (   0.3076923  -0.2307692   0.0000000), wk =   0.0236686
        k(   58) = (   0.3076923  -0.1538462   0.0000000), wk =   0.0236686
        k(   59) = (   0.3076923  -0.0769231   0.0000000), wk =   0.0236686
        k(   60) = (   0.3846154   0.0000000   0.0000000), wk =   0.0236686
[...]
        k(   71) = (   0.3846154  -0.1538462   0.0000000), wk =   0.0236686
        k(   72) = (   0.3846154  -0.0769231   0.0000000), wk =   0.0236686
        k(   73) = (   0.4615385   0.0000000   0.0000000), wk =   0.0236686
        k(   74) = (   0.4615385   0.0769231   0.0000000), wk =   0.0236686
        k(   75) = (   0.4615385   0.1538462   0.0000000), wk =   0.0236686
        k(   76) = (   0.4615385   0.2307692   0.0000000), wk =   0.0236686
        k(   77) = (   0.4615385   0.3076923   0.0000000), wk =   0.0236686
        k(   78) = (   0.4615385   0.3846154   0.0000000), wk =   0.0236686
        k(   79) = (   0.4615385   0.4615385   0.0000000), wk =   0.0236686
        k(   80) = (   0.4615385  -0.4615385   0.0000000), wk =   0.0236686
        k(   81) = (   0.4615385  -0.3846154   0.0000000), wk =   0.0236686
        k(   82) = (   0.4615385  -0.3076923   0.0000000), wk =   0.0236686
        k(   83) = (   0.4615385  -0.2307692   0.0000000), wk =   0.0236686
        k(   84) = (   0.4615385  -0.1538462   0.0000000), wk =   0.0236686
        k(   85) = (   0.4615385  -0.0769231   0.0000000), wk =   0.0236686

     Initial potential from superposition of free atoms

     starting charge      77.7638, renormalised to      78.0000

     negative rho (up, down):  6.521E-04 0.000E+00
     Starting wfcs are random

     Self-consistent Calculation

     iteration #  1     ecut=    70.00 Ry     beta= 0.70
     Davidson diagonalization with overlap

     ethr =  1.00E-02,  avg # of iterations =  8.9

     Threshold (ethr) on eigenvalues was too large:
     Diagonalizing with lowered threshold

     Davidson diagonalization with overlap

[...]

     negative rho (up, down):  5.418E-05 0.000E+00

     total energy              =    -806.58377029 Ry
     estimated scf accuracy    <       0.08369863 Ry

[...]

     c_bands:  1 eigenvalues not converged
     ethr =  1.07E-04,  avg # of iterations = 10.7

[...]

     negative rho (up, down):  1.124E-08 0.000E+00

[...]

     End of self-consistent calculation

          k = 0.0000 0.0000 0.0000 ( 24159 PWs)   bands (ev):

   -34.7006 -34.7003 -34.7001 -34.6999 -34.6708 -34.6702 -34.6671 -34.6667
   -34.6577 -34.6572 -34.5926 -34.5848 -34.5779 -34.5458 -34.5454 -27.4663
   -27.4661 -27.4660 -27.4657 -27.4583 -27.4579 -27.4549 -27.4546 -27.4536
   -27.4532 -10.6634 -10.1303  -9.0495  -6.2998  -4.9113  -0.1728   0.1092
     0.2791   0.3384   0.4643   0.7836   0.9473   1.0455   1.2794   2.2868
     2.7722   2.8451   3.7331   3.8670   3.9122   6.2146   6.4070   6.9824
     7.5308   7.6162   7.8184   8.3979   8.6214   8.7707   8.8470   9.1431
     9.5927   9.6952  10.0266  10.1285  10.5297  11.0526  11.3396  11.4670
    11.5437  11.6793  12.8139  12.8712  13.8713  14.1341  14.1380  14.2495
    14.4038  15.0818  15.7466  16.0145  16.0472  16.0891  16.2504  16.3546
    16.6920  17.0875  17.1063  17.1434  17.3537  17.3575  17.4538  17.4841
    17.5519  17.6457  17.7071  17.8246  17.8925  18.1615  19.0108  19.0804
    19.1468  19.2592  19.3155  19.4147

     occupation numbers
     1.0000   1.0000   1.0000   1.0000   1.0000   1.0000   1.0000   1.0000
     1.0000   1.0000   1.0000   1.0000   1.0000   1.0000   1.0000   1.0000
     1.0000   1.0000   1.0000   1.0000   1.0000   1.0000   1.0000   1.0000
     1.0000   1.0000   1.0000   1.0000   1.0000   1.0000   1.0000   1.0000
     1.0000   1.0000   1.0000   1.0000   1.0000   1.0000   1.0000   0.0000
     0.0000   0.0000   0.0000   0.0000   0.0000   0.0000   0.0000   0.0000
     0.0000   0.0000   0.0000   0.0000   0.0000   0.0000   0.0000   0.0000
     0.0000   0.0000   0.0000   0.0000   0.0000   0.0000   0.0000   0.0000
     0.0000   0.0000   0.0000   0.0000   0.0000   0.0000   0.0000   0.0000
     0.0000   0.0000   0.0000   0.0000   0.0000   0.0000   0.0000   0.0000
     0.0000   0.0000   0.0000   0.0000   0.0000   0.0000   0.0000   0.0000
     0.0000   0.0000   0.0000   0.0000   0.0000   0.0000   0.0000   0.0000
     0.0000   0.0000   0.0000   0.0000

[...]

     highest occupied, lowest unoccupied level (ev):     1.7476    2.2868

!    total energy              =    -806.62019617 Ry
     estimated scf accuracy    <          3.4E-09 Ry

     convergence has been achieved in  10 iterations

     Using ACE for calculation of exact exchange

     EXX: now go back to refine exchange calculation

[...]

     Using ACE for calculation of exact exchange
     ACE projected onto   100 (nbndproj) and applied to   100 (nbnd) bands

     total energy              =    -805.33397110 Ry
     Harris-Foulkes estimate   =    -805.33398299 Ry
     est. exchange err (dexx)  =       0.00169816 Ry
     - averaged Fock potential =      22.91051802 Ry
     + Fock energy (ACE)       =     -11.47721980 Ry

[...]

     c_bands:  1 eigenvalues not converged
     c_bands:  1 eigenvalues not converged
     c_bands:  1 eigenvalues not converged
     c_bands:  1 eigenvalues not converged
     ethr =  3.92E-10,  avg # of iterations = 13.9

[...]

     total energy              =    -805.33332859 Ry
     Harris-Foulkes estimate   =    -805.33332842 Ry
     est. exchange err (dexx)  =       0.00000039 Ry
     - averaged Fock potential =      22.96457693 Ry
     + Fock energy (ACE)       =     -11.48233638 Ry

     EXX: now go back to refine exchange calculation

     Self-consistent Calculation

[...]

     total energy              =    -805.33332748 Ry
     estimated scf accuracy    <       0.00000219 Ry

     iteration #  4     ecut=    70.00 Ry     beta= 0.70
     Davidson diagonalization with overlap

     ethr =  1.30E-09,  avg # of iterations =  6.7

     End of self-consistent calculation

[...]

          k = 0.4615 0.1759 0.0000 ( 24323 PWs)   bands (ev):

   -36.5122 -36.5118 -36.5037 -36.5034 -36.4719 -36.4715 -36.4676 -36.4672
   -36.4557 -36.4553 -36.2227 -36.2183 -36.2048 -36.1707 -36.1646 -29.2079
   -29.2070 -29.2031 -29.2023 -29.1924 -29.1908 -29.1808 -29.1800 -29.1681
   -29.1660 -11.3210 -11.0593 -10.6546  -9.0030  -8.4175  -4.2569  -2.9819
    -2.7727  -2.4994  -1.8845  -1.3767  -0.3639  -0.0957   0.5542   2.9691
     3.0655   3.4816   4.7346   4.9938   5.7354   5.9986   7.4560   8.1547
     8.4756   9.1492   9.3712   9.4157   9.9659  10.2436  10.5831  10.7292
    11.1241  11.3383  11.7302  11.9271  12.0827  12.3291  12.4207  12.8730
    12.9675  13.0316  13.3712  13.4829  13.8625  14.0971  14.1945  14.5500
    14.6705  14.9653  15.2471  15.4180  15.5404  15.6857  15.9331  16.1898
    16.3796  16.4225  16.5421  16.8543  17.2220  17.3388  17.3988  17.6466
    17.8072  17.9584  18.2976  18.3346  18.5222  18.8400  18.9785  19.2817
    19.3887  19.5774  19.6962  19.9999

     occupation numbers
     1.0000   1.0000   1.0000   1.0000   1.0000   1.0000   1.0000   1.0000
     1.0000   1.0000   1.0000   1.0000   1.0000   1.0000   1.0000   1.0000
     1.0000   1.0000   1.0000   1.0000   1.0000   1.0000   1.0000   1.0000
     1.0000   1.0000   1.0000   1.0000   1.0000   1.0000   1.0000   1.0000
     1.0000   1.0000   1.0000   1.0000   1.0000   1.0000   1.0000   0.0000
     0.0000   0.0000   0.0000   0.0000   0.0000   0.0000   0.0000   0.0000
     0.0000   0.0000   0.0000   0.0000   0.0000   0.0000   0.0000   0.0000
     0.0000   0.0000   0.0000   0.0000   0.0000   0.0000   0.0000   0.0000
     0.0000   0.0000   0.0000   0.0000   0.0000   0.0000   0.0000   0.0000
     0.0000   0.0000   0.0000   0.0000   0.0000   0.0000   0.0000   0.0000
     0.0000   0.0000   0.0000   0.0000   0.0000   0.0000   0.0000   0.0000
     0.0000   0.0000   0.0000   0.0000   0.0000   0.0000   0.0000   0.0000
     0.0000   0.0000   0.0000   0.0000

     highest occupied, lowest unoccupied level (ev):     0.9231    2.1158

!    total energy              =    -805.33332833 Ry
     estimated scf accuracy    <       0.00000002 Ry

     convergence has been achieved in   4 iterations

     Using ACE for calculation of exact exchange
     ACE projected onto   100 (nbndproj) and applied to   100 (nbnd) bands

!!   total energy              =    -805.33332840 Ry
     Harris-Foulkes estimate   =    -805.33332773 Ry
     est. exchange err (dexx)  =       0.00000007 Ry
     - averaged Fock potential =      22.96469739 Ry
     + Fock energy (ACE)       =     -11.48236107 Ry

     EXX self-consistency reached

     Writing all to output data dir tmp/Sb2Te3-uatsx-c4-2.0.save/ :
     XML data file, charge density, pseudopotentials, collected wavefunctions

     General routines

     Parallel routines

     EXX routines

   This run was terminated on:   3:43: 2  20May2025

   JOB DONE.