     Program PWSCF v.7.3.1 starts on 19May2025 at 23:35:39

     Waiting for input...
     Reading input from standard input

     Current dimensions of program PWSCF are:
     Max number of different atomic species (ntypx) = 10
     Max number of k-points (npk) =  40000
     Max angular momentum in pseudopotentials (lmaxx) =  4

     IMPORTANT: XC functional enforced from input :
     Exchange-correlation= GAUP
                           (   1   4  20   4   0   0   0)
     EXX-fraction              =        0.24
     Any further DFT definition will be discarded
     Please, verify this is what you really want

     K-points division:     npool     =       2
     R & G space division:  proc/nbgrp/npool/nimage =      84
     Subspace diagonalization in iterative solution of the eigenvalue problem:
     a serial algorithm will be used

     EXX: q-point mesh:     1    1    1
     EXX: setup a grid of 85 q-points centered on each k-point
     (k+q)-points:
   0.0000000   0.0000000   0.0000000         1    1
   0.0000000   0.0887897   0.0000000         2    1
   0.0000000   0.1775795   0.0000000         3    1
   0.0000000   0.2663692   0.0000000         4    1
   0.0000000   0.3551590   0.0000000         5    1
   0.0000000   0.4439487   0.0000000         6    1
   0.0000000   0.5327385   0.0000000         7    1
   0.0769231   0.0443949   0.0000000         8    1
   0.0769231   0.1331846   0.0000000         9    1
   0.0769231   0.2219744   0.0000000        10    1
   0.0769231   0.3107641   0.0000000        11    1
   0.0769231   0.3995538   0.0000000        12    1
   0.0769231   0.4883436   0.0000000        13    1
   0.0769231   0.5771333   0.0000000        14    1
   0.1538462   0.0887897   0.0000000        15    1
   0.1538462   0.1775795   0.0000000        16    1
   0.1538462   0.2663692   0.0000000        17    1
   0.1538462   0.3551590   0.0000000        18    1
   0.1538462   0.4439487   0.0000000        19    1
   0.1538462   0.5327385   0.0000000        20    1
   0.1538462  -0.0000000   0.0000000        21    1
   0.2307692   0.1331846   0.0000000        22    1
   0.2307692   0.2219744   0.0000000        23    1
   0.2307692   0.3107641   0.0000000        24    1
   0.2307692   0.3995538   0.0000000        25    1
   0.2307692   0.4883436   0.0000000        26    1
   0.2307692   0.5771333   0.0000000        27    1
   0.2307692  -0.0443949   0.0000000        28    1
   0.3076923   0.1775795   0.0000000        29    1
   0.3076923   0.2663692   0.0000000        30    1
   0.3076923   0.3551590   0.0000000        31    1
   0.3076923   0.4439487   0.0000000        32    1
   0.3076923   0.5327385   0.0000000        33    1
   0.3076923  -0.0887897   0.0000000        34    1
   0.3076923  -0.0000000   0.0000000        35    1
   0.3846154   0.2219744   0.0000000        36    1
   0.3846154   0.3107641   0.0000000        37    1
   0.3846154   0.3995538   0.0000000        38    1
   0.3846154   0.4883436   0.0000000        39    1
   0.3846154   0.5771333   0.0000000        40    1
   0.3846154  -0.1331846   0.0000000        41    1
   0.3846154  -0.0443949   0.0000000        42    1
   0.4615385   0.2663692   0.0000000        43    1
   0.4615385   0.3551590   0.0000000        44    1
   0.4615385   0.4439487   0.0000000        45    1
   0.4615385   0.5327385   0.0000000        46    1
   0.4615385  -0.1775795   0.0000000        47    1
   0.4615385  -0.0887897   0.0000000        48    1
   0.4615385  -0.0000000   0.0000000        49    1
  -0.0769231   0.0443949   0.0000000        50    1
  -0.0769231   0.1331846   0.0000000        51    1
  -0.0769231   0.2219744   0.0000000        52    1
  -0.0769231   0.3107641   0.0000000        53    1
  -0.0769231   0.3995538   0.0000000        54    1
  -0.0769231   0.4883436   0.0000000        55    1
  -0.1538462   0.0887897   0.0000000        56    1
  -0.1538462   0.1775795   0.0000000        57    1
  -0.1538462   0.2663692   0.0000000        58    1
  -0.1538462   0.3551590   0.0000000        59    1
  -0.1538462   0.4439487   0.0000000        60    1
[...]
  -0.3076923   0.4439487   0.0000000        71    1
  -0.3076923   0.5327385   0.0000000        72    1
  -0.3076923  -0.0887897   0.0000000        73    1
  -0.3846154   0.2219744   0.0000000        74    1
  -0.3846154   0.3107641   0.0000000        75    1
  -0.3846154   0.3995538   0.0000000        76    1
  -0.3846154   0.4883436   0.0000000        77    1
  -0.3846154  -0.1331846   0.0000000        78    1
  -0.3846154  -0.0443949   0.0000000        79    1
  -0.4615385   0.2663692   0.0000000        80    1
  -0.4615385   0.3551590   0.0000000        81    1
  -0.4615385   0.4439487   0.0000000        82    1
  -0.4615385   0.5327385   0.0000000        83    1
  -0.4615385  -0.1775795   0.0000000        84    1
  -0.4615385  -0.0887897   0.0000000        85    1

     Using Slab Decomposition

     bravais-lattice index     =            0
     lattice parameter (alat)  =       8.1456  a.u.
     unit-cell volume          =    2407.5243 (a.u.)^3
     number of atoms/cell      =            5
     number of atomic types    =            2
     number of electrons       =        78.00
     number of Kohn-Sham states=          100
     kinetic-energy cutoff     =      70.0000  Ry
     charge density cutoff     =     280.0000  Ry
     cutoff for Fock operator  =     280.0000  Ry
     scf convergence threshold =      1.0E-07
     mixing beta               =       0.7000
     number of iterations used =            8  plain     mixing
     Exchange-correlation= GAUP
                           (   1   4  20   4   0   0   0)
     EXX-fraction              =        0.24

     celldm(1)=   8.145633  celldm(2)=   0.000000  celldm(3)=   0.000000
     celldm(4)=   0.000000  celldm(5)=   0.000000  celldm(6)=   0.000000

     crystal axes: (cart. coord. in units of alat)
               a(1) = (   1.000000   0.000000   0.000000 )
               a(2) = (  -0.500000   0.866351   0.000000 )
               a(3) = (   0.000000   0.000000   5.141647 )

     reciprocal axes: (cart. coord. in units 2 pi/alat)
               b(1) = (  1.000000  0.577133 -0.000000 )
               b(2) = (  0.000000  1.154267  0.000000 )
               b(3) = (  0.000000 -0.000000  0.194490 )

     PseudoPot. # 1 for Sb read from file:
     /zfs-home/202401017n/pseudos/Sb_ONCV_PBE-1.2.upf
     MD5 check sum: 0417cd6c0fe8ce4611e2b23135f1abd9
     Pseudo is Norm-conserving, Zval = 15.0
     Generated using ONCVPSP code by D. R. Hamann
     Using radial grid of  602 points,  6 beta functions with:
                l(1) =   0
                l(2) =   0
                l(3) =   1
                l(4) =   1
                l(5) =   2
                l(6) =   2

     PseudoPot. # 2 for Te read from file:
     /zfs-home/202401017n/pseudos/Te_ONCV_PBE-1.2.upf
     MD5 check sum: dd4de4dac1e38587f63aaf3700bb29d3
     Pseudo is Norm-conserving, Zval = 16.0
     Generated using ONCVPSP code by D. R. Hamann
     Using radial grid of  602 points,  6 beta functions with:
                l(1) =   0
                l(2) =   0
                l(3) =   1
                l(4) =   1
                l(5) =   2
                l(6) =   2

     atomic species   valence    mass     pseudopotential
     Sb               15.00   121.76000     Sb( 1.00)
     Te               16.00   127.60000     Te( 1.00)

     No symmetry found

                                    s                        frac. trans.

      isym =  1     identity

 cryst.   s( 1) = (     1          0          0      )
                  (     0          1          0      )
                  (     0          0          1      )

 cart.    s( 1) = (  1.0000000  0.0000000  0.0000000 )
                  (  0.0000000  1.0000000  0.0000000 )
                  (  0.0000000  0.0000000  1.0000000 )

   Cartesian axes

     site n.     atom                  positions (alat units)
         1        Sb     tau(   1) = (   0.5750834   0.4224062   3.0359551  )
         2        Te     tau(   2) = (   0.5751339   0.4221290   1.7103276  )
         3        Sb     tau(   3) = (   0.0749290   0.1335764   2.1056524  )
         4        Te     tau(   4) = (   0.0751535   0.1333230   3.4312869  )
         5        Te     tau(   5) = (   0.0751717   0.7108473   2.5707967  )

     Parameters for Dispersion (Grimme-D2) Correction:
       atom      VdW radius       C_6

        Sb         3.555       1333.532
        Te         3.575       1101.101

   Crystallographic axes

     site n.     atom                  positions (cryst. coord.)
         1        Sb     tau(   1) = (  0.8188681  0.4875694  0.5904636  )
         2        Te     tau(   2) = (  0.8187586  0.4872494  0.3326420  )
         3        Sb     tau(   3) = (  0.1520204  0.1541827  0.4095288  )
         4        Te     tau(   4) = (  0.1520986  0.1538903  0.6673517  )
         5        Te     tau(   5) = (  0.4854254  0.8205074  0.4999948  )

     number of k points=    85
                       cart. coord. in units 2pi/alat
        k(    1) = (   0.0000000   0.0000000   0.0000000), wk =   0.0118343
        k(    2) = (   0.0000000   0.0887897   0.0000000), wk =   0.0236686
        k(    3) = (   0.0000000   0.1775795   0.0000000), wk =   0.0236686
        k(    4) = (   0.0000000   0.2663692   0.0000000), wk =   0.0236686
        k(    5) = (   0.0000000   0.3551590   0.0000000), wk =   0.0236686
        k(    6) = (   0.0000000   0.4439487   0.0000000), wk =   0.0236686
        k(    7) = (   0.0000000   0.5327385   0.0000000), wk =   0.0236686
        k(    8) = (   0.0769231   0.0443949   0.0000000), wk =   0.0236686
        k(    9) = (   0.0769231   0.1331846   0.0000000), wk =   0.0236686
        k(   10) = (   0.0769231   0.2219744   0.0000000), wk =   0.0236686
        k(   11) = (   0.0769231   0.3107641   0.0000000), wk =   0.0236686
        k(   12) = (   0.0769231   0.3995538   0.0000000), wk =   0.0236686
        k(   13) = (   0.0769231   0.4883436   0.0000000), wk =   0.0236686
        k(   14) = (   0.0769231   0.5771333   0.0000000), wk =   0.0236686
        k(   15) = (   0.1538462   0.0887897   0.0000000), wk =   0.0236686
        k(   16) = (   0.1538462   0.1775795   0.0000000), wk =   0.0236686
        k(   17) = (   0.1538462   0.2663692   0.0000000), wk =   0.0236686
        k(   18) = (   0.1538462   0.3551590   0.0000000), wk =   0.0236686
        k(   19) = (   0.1538462   0.4439487   0.0000000), wk =   0.0236686
        k(   20) = (   0.1538462   0.5327385   0.0000000), wk =   0.0236686
        k(   21) = (   0.1538462  -0.0000000   0.0000000), wk =   0.0236686
        k(   22) = (   0.2307692   0.1331846   0.0000000), wk =   0.0236686
        k(   23) = (   0.2307692   0.2219744   0.0000000), wk =   0.0236686
        k(   24) = (   0.2307692   0.3107641   0.0000000), wk =   0.0236686
        k(   25) = (   0.2307692   0.3995538   0.0000000), wk =   0.0236686
        k(   26) = (   0.2307692   0.4883436   0.0000000), wk =   0.0236686
        k(   27) = (   0.2307692   0.5771333   0.0000000), wk =   0.0236686
        k(   28) = (   0.2307692  -0.0443949   0.0000000), wk =   0.0236686
[...]
        k(   34) = (   0.3076923  -0.0887897   0.0000000), wk =   0.0236686
        k(   35) = (   0.3076923  -0.0000000   0.0000000), wk =   0.0236686
        k(   36) = (   0.3846154   0.2219744   0.0000000), wk =   0.0236686
        k(   37) = (   0.3846154   0.3107641   0.0000000), wk =   0.0236686
        k(   38) = (   0.3846154   0.3995538   0.0000000), wk =   0.0236686
        k(   39) = (   0.3846154   0.4883436   0.0000000), wk =   0.0236686
        k(   40) = (   0.3846154   0.5771333   0.0000000), wk =   0.0236686
        k(   41) = (   0.3846154  -0.1331846   0.0000000), wk =   0.0236686
        k(   42) = (   0.3846154  -0.0443949   0.0000000), wk =   0.0236686
        k(   43) = (   0.4615385   0.2663692   0.0000000), wk =   0.0236686
        k(   44) = (   0.4615385   0.3551590   0.0000000), wk =   0.0236686
        k(   45) = (   0.4615385   0.4439487   0.0000000), wk =   0.0236686
        k(   46) = (   0.4615385   0.5327385   0.0000000), wk =   0.0236686
        k(   47) = (   0.4615385  -0.1775795   0.0000000), wk =   0.0236686
        k(   48) = (   0.4615385  -0.0887897   0.0000000), wk =   0.0236686
        k(   49) = (   0.4615385  -0.0000000   0.0000000), wk =   0.0236686
        k(   50) = (  -0.0769231   0.0443949   0.0000000), wk =   0.0236686
        k(   51) = (  -0.0769231   0.1331846   0.0000000), wk =   0.0236686
        k(   52) = (  -0.0769231   0.2219744   0.0000000), wk =   0.0236686
        k(   53) = (  -0.0769231   0.3107641   0.0000000), wk =   0.0236686
        k(   54) = (  -0.0769231   0.3995538   0.0000000), wk =   0.0236686
        k(   55) = (  -0.0769231   0.4883436   0.0000000), wk =   0.0236686
        k(   56) = (  -0.1538462   0.0887897   0.0000000), wk =   0.0236686
        k(   57) = (  -0.1538462   0.1775795   0.0000000), wk =   0.0236686
        k(   58) = (  -0.1538462   0.2663692   0.0000000), wk =   0.0236686
        k(   59) = (  -0.1538462   0.3551590   0.0000000), wk =   0.0236686
        k(   60) = (  -0.1538462   0.4439487   0.0000000), wk =   0.0236686
[...]
        k(   71) = (  -0.3076923   0.4439487   0.0000000), wk =   0.0236686
        k(   72) = (  -0.3076923   0.5327385   0.0000000), wk =   0.0236686
        k(   73) = (  -0.3076923  -0.0887897   0.0000000), wk =   0.0236686
        k(   74) = (  -0.3846154   0.2219744   0.0000000), wk =   0.0236686
        k(   75) = (  -0.3846154   0.3107641   0.0000000), wk =   0.0236686
        k(   76) = (  -0.3846154   0.3995538   0.0000000), wk =   0.0236686
        k(   77) = (  -0.3846154   0.4883436   0.0000000), wk =   0.0236686
        k(   78) = (  -0.3846154  -0.1331846   0.0000000), wk =   0.0236686
        k(   79) = (  -0.3846154  -0.0443949   0.0000000), wk =   0.0236686
        k(   80) = (  -0.4615385   0.2663692   0.0000000), wk =   0.0236686
        k(   81) = (  -0.4615385   0.3551590   0.0000000), wk =   0.0236686
        k(   82) = (  -0.4615385   0.4439487   0.0000000), wk =   0.0236686
        k(   83) = (  -0.4615385   0.5327385   0.0000000), wk =   0.0236686
        k(   84) = (  -0.4615385  -0.1775795   0.0000000), wk =   0.0236686
        k(   85) = (  -0.4615385  -0.0887897   0.0000000), wk =   0.0236686

                       cryst. coord.
        k(    1) = (   0.0000000   0.0000000   0.0000000), wk =   0.0118343
        k(    2) = (   0.0000000   0.0769231   0.0000000), wk =   0.0236686
        k(    3) = (   0.0000000   0.1538462   0.0000000), wk =   0.0236686
        k(    4) = (   0.0000000   0.2307692   0.0000000), wk =   0.0236686
        k(    5) = (   0.0000000   0.3076923   0.0000000), wk =   0.0236686
        k(    6) = (   0.0000000   0.3846154   0.0000000), wk =   0.0236686
        k(    7) = (   0.0000000   0.4615385   0.0000000), wk =   0.0236686
        k(    8) = (   0.0769231   0.0000000   0.0000000), wk =   0.0236686
        k(    9) = (   0.0769231   0.0769231   0.0000000), wk =   0.0236686
        k(   10) = (   0.0769231   0.1538462   0.0000000), wk =   0.0236686
        k(   11) = (   0.0769231   0.2307692   0.0000000), wk =   0.0236686
        k(   12) = (   0.0769231   0.3076923   0.0000000), wk =   0.0236686
        k(   13) = (   0.0769231   0.3846154   0.0000000), wk =   0.0236686
        k(   14) = (   0.0769231   0.4615385   0.0000000), wk =   0.0236686
        k(   15) = (   0.1538462   0.0000000   0.0000000), wk =   0.0236686
        k(   16) = (   0.1538462   0.0769231   0.0000000), wk =   0.0236686
        k(   17) = (   0.1538462   0.1538462   0.0000000), wk =   0.0236686
        k(   18) = (   0.1538462   0.2307692   0.0000000), wk =   0.0236686
        k(   19) = (   0.1538462   0.3076923   0.0000000), wk =   0.0236686
        k(   20) = (   0.1538462   0.3846154   0.0000000), wk =   0.0236686
        k(   21) = (   0.1538462  -0.0769231   0.0000000), wk =   0.0236686
        k(   22) = (   0.2307692   0.0000000   0.0000000), wk =   0.0236686
        k(   23) = (   0.2307692   0.0769231   0.0000000), wk =   0.0236686
        k(   24) = (   0.2307692   0.1538462   0.0000000), wk =   0.0236686
        k(   25) = (   0.2307692   0.2307692   0.0000000), wk =   0.0236686
        k(   26) = (   0.2307692   0.3076923   0.0000000), wk =   0.0236686
        k(   27) = (   0.2307692   0.3846154   0.0000000), wk =   0.0236686
        k(   28) = (   0.2307692  -0.1538462   0.0000000), wk =   0.0236686
        k(   29) = (   0.3076923   0.0000000   0.0000000), wk =   0.0236686
        k(   30) = (   0.3076923   0.0769231   0.0000000), wk =   0.0236686
        k(   31) = (   0.3076923   0.1538462   0.0000000), wk =   0.0236686
        k(   32) = (   0.3076923   0.2307692   0.0000000), wk =   0.0236686
        k(   33) = (   0.3076923   0.3076923   0.0000000), wk =   0.0236686
        k(   34) = (   0.3076923  -0.2307692   0.0000000), wk =   0.0236686
        k(   35) = (   0.3076923  -0.1538462   0.0000000), wk =   0.0236686
        k(   36) = (   0.3846154   0.0000000   0.0000000), wk =   0.0236686
        k(   37) = (   0.3846154   0.0769231   0.0000000), wk =   0.0236686
        k(   38) = (   0.3846154   0.1538462   0.0000000), wk =   0.0236686
        k(   39) = (   0.3846154   0.2307692   0.0000000), wk =   0.0236686
        k(   40) = (   0.3846154   0.3076923   0.0000000), wk =   0.0236686
        k(   41) = (   0.3846154  -0.3076923   0.0000000), wk =   0.0236686
        k(   42) = (   0.3846154  -0.2307692   0.0000000), wk =   0.0236686
        k(   43) = (   0.4615385   0.0000000   0.0000000), wk =   0.0236686
        k(   44) = (   0.4615385   0.0769231   0.0000000), wk =   0.0236686
        k(   45) = (   0.4615385   0.1538462   0.0000000), wk =   0.0236686
        k(   46) = (   0.4615385   0.2307692   0.0000000), wk =   0.0236686
        k(   47) = (   0.4615385  -0.3846154   0.0000000), wk =   0.0236686
        k(   48) = (   0.4615385  -0.3076923   0.0000000), wk =   0.0236686
        k(   49) = (   0.4615385  -0.2307692   0.0000000), wk =   0.0236686
        k(   50) = (  -0.0769231   0.0769231   0.0000000), wk =   0.0236686
        k(   51) = (  -0.0769231   0.1538462   0.0000000), wk =   0.0236686
        k(   52) = (  -0.0769231   0.2307692   0.0000000), wk =   0.0236686
        k(   53) = (  -0.0769231   0.3076923   0.0000000), wk =   0.0236686
        k(   54) = (  -0.0769231   0.3846154   0.0000000), wk =   0.0236686
        k(   55) = (  -0.0769231   0.4615385   0.0000000), wk =   0.0236686
        k(   56) = (  -0.1538462   0.1538462   0.0000000), wk =   0.0236686
        k(   57) = (  -0.1538462   0.2307692   0.0000000), wk =   0.0236686
        k(   58) = (  -0.1538462   0.3076923   0.0000000), wk =   0.0236686
        k(   59) = (  -0.1538462   0.3846154   0.0000000), wk =   0.0236686
        k(   60) = (  -0.1538462   0.4615385   0.0000000), wk =   0.0236686
[...]
        k(   71) = (  -0.3076923   0.5384615   0.0000000), wk =   0.0236686
        k(   72) = (  -0.3076923   0.6153846   0.0000000), wk =   0.0236686
        k(   73) = (  -0.3076923   0.0769231   0.0000000), wk =   0.0236686
        k(   74) = (  -0.3846154   0.3846154   0.0000000), wk =   0.0236686
        k(   75) = (  -0.3846154   0.4615385   0.0000000), wk =   0.0236686
        k(   76) = (  -0.3846154   0.5384615   0.0000000), wk =   0.0236686
        k(   77) = (  -0.3846154   0.6153846   0.0000000), wk =   0.0236686
        k(   78) = (  -0.3846154   0.0769231   0.0000000), wk =   0.0236686
        k(   79) = (  -0.3846154   0.1538462   0.0000000), wk =   0.0236686
        k(   80) = (  -0.4615385   0.4615385   0.0000000), wk =   0.0236686
        k(   81) = (  -0.4615385   0.5384615   0.0000000), wk =   0.0236686
        k(   82) = (  -0.4615385   0.6153846   0.0000000), wk =   0.0236686
        k(   83) = (  -0.4615385   0.6923077   0.0000000), wk =   0.0236686
        k(   84) = (  -0.4615385   0.0769231   0.0000000), wk =   0.0236686
        k(   85) = (  -0.4615385   0.1538462   0.0000000), wk =   0.0236686

     Initial potential from superposition of free atoms

     starting charge      77.7638, renormalised to      78.0000

     negative rho (up, down):  6.570E-04 0.000E+00
     Starting wfcs are random

     Self-consistent Calculation

     iteration #  1     ecut=    70.00 Ry     beta= 0.70
     Davidson diagonalization with overlap

     ethr =  1.00E-02,  avg # of iterations =  9.1

     Threshold (ethr) on eigenvalues was too large:
     Diagonalizing with lowered threshold

     Davidson diagonalization with overlap

[...]

     negative rho (up, down):  5.511E-05 0.000E+00

     total energy              =    -806.58902476 Ry
     estimated scf accuracy    <       0.07999380 Ry

[...]

     negative rho (up, down):  1.729E-08 0.000E+00

[...]

     c_bands:  1 eigenvalues not converged
     c_bands:  1 eigenvalues not converged
     c_bands:  1 eigenvalues not converged
     ethr =  1.63E-07,  avg # of iterations = 10.8

[...]

     End of self-consistent calculation

          k = 0.0000 0.0000 0.0000 ( 23771 PWs)   bands (ev):

   -34.5613 -34.5613 -34.5612 -34.5611 -34.5352 -34.5351 -34.5348 -34.5347
   -34.5255 -34.5254 -34.4472 -34.4348 -34.4347 -34.3945 -34.3945 -27.3109
   -27.3109 -27.3106 -27.3105 -27.3019 -27.3014 -27.2986 -27.2986 -27.2982
   -27.2982 -10.5763 -10.0533  -8.9634  -6.2010  -4.7685  -0.1246   0.4047
     0.4060   0.6141   0.6162   0.9232   1.2172   1.2188   1.5045   2.5756
     3.0034   3.0054   4.0432   4.0473   4.0480   6.3233   6.5269   7.0568
     7.7653   7.8851   7.8896   8.5249   8.8053   8.9642   9.1740   9.1784
     9.8221   9.8250  10.1410  10.2811  10.6585  11.3502  11.3543  11.6373
    11.7708  11.7740  12.8874  13.0098  14.1711  14.1748  14.3856  14.3887
    14.5220  15.2502  16.0994  16.1034  16.1903  16.4172  16.4208  16.4873
    16.8808  17.3615  17.4911  17.4950  17.5466  17.6628  17.6665  17.8867
    17.8906  17.9075  17.9330  17.9366  18.1331  18.4012  19.4002  19.4041
    19.4576  19.4826  19.4864  19.7175

     occupation numbers
     1.0000   1.0000   1.0000   1.0000   1.0000   1.0000   1.0000   1.0000
     1.0000   1.0000   1.0000   1.0000   1.0000   1.0000   1.0000   1.0000
     1.0000   1.0000   1.0000   1.0000   1.0000   1.0000   1.0000   1.0000
     1.0000   1.0000   1.0000   1.0000   1.0000   1.0000   1.0000   1.0000
     1.0000   1.0000   1.0000   1.0000   1.0000   1.0000   1.0000   0.0000
     0.0000   0.0000   0.0000   0.0000   0.0000   0.0000   0.0000   0.0000
     0.0000   0.0000   0.0000   0.0000   0.0000   0.0000   0.0000   0.0000
     0.0000   0.0000   0.0000   0.0000   0.0000   0.0000   0.0000   0.0000
     0.0000   0.0000   0.0000   0.0000   0.0000   0.0000   0.0000   0.0000
     0.0000   0.0000   0.0000   0.0000   0.0000   0.0000   0.0000   0.0000
     0.0000   0.0000   0.0000   0.0000   0.0000   0.0000   0.0000   0.0000
     0.0000   0.0000   0.0000   0.0000   0.0000   0.0000   0.0000   0.0000
     0.0000   0.0000   0.0000   0.0000

[...]

          k =-0.0769 0.0444 0.0000 ( 23753 PWs)   bands (ev):

[...]

     highest occupied, lowest unoccupied level (ev):     1.8995    2.5756

!    total energy              =    -806.62323122 Ry
     estimated scf accuracy    <       0.00000002 Ry

     convergence has been achieved in   9 iterations

     Using ACE for calculation of exact exchange

     EXX: now go back to refine exchange calculation

[...]

     Using ACE for calculation of exact exchange
     ACE projected onto   100 (nbndproj) and applied to   100 (nbnd) bands

     total energy              =    -805.34702244 Ry
     Harris-Foulkes estimate   =    -805.34702847 Ry
     est. exchange err (dexx)  =       0.00169980 Ry
     - averaged Fock potential =      22.94050250 Ry
     + Fock energy (ACE)       =     -11.49207975 Ry

[...]

     c_bands:  1 eigenvalues not converged
     c_bands:  1 eigenvalues not converged
     c_bands:  1 eigenvalues not converged
     c_bands:  1 eigenvalues not converged
     c_bands:  1 eigenvalues not converged
     c_bands:  1 eigenvalues not converged
     c_bands:  1 eigenvalues not converged
     ethr =  1.62E-10,  avg # of iterations = 13.1

[...]

     total energy              =    -805.34638672 Ry
     Harris-Foulkes estimate   =    -805.34638691 Ry
     est. exchange err (dexx)  =       0.00000037 Ry
     - averaged Fock potential =      22.99424959 Ry
     + Fock energy (ACE)       =     -11.49717463 Ry

     EXX: now go back to refine exchange calculation

     Self-consistent Calculation

[...]

     total energy              =    -805.34638533 Ry
     estimated scf accuracy    <       0.00000710 Ry

     iteration #  3     ecut=    70.00 Ry     beta= 0.70
     Davidson diagonalization with overlap

     ethr =  3.99E-10,  avg # of iterations = 10.4

     End of self-consistent calculation

[...]

          k = 0.4615-0.0000 0.0000 ( 23815 PWs)   bands (ev):

[...]

          k =-0.4615-0.0888 0.0000 ( 23823 PWs)   bands (ev):

   -36.3758 -36.3754 -36.3697 -36.3691 -36.3468 -36.3463 -36.3350 -36.3342
   -36.3265 -36.3258 -36.0816 -36.0757 -36.0605 -36.0187 -36.0151 -29.0531
   -29.0524 -29.0480 -29.0473 -29.0357 -29.0350 -29.0279 -29.0274 -29.0176
   -29.0159 -11.2807 -10.9503 -10.4106  -8.7007  -8.3198  -3.9546  -3.2043
    -2.6721  -2.5297  -1.9073  -1.4434  -0.2304   0.1364   0.7687   2.9517
     3.5450   3.6644   4.7394   5.3730   5.8035   6.6133   7.7477   8.1440
     8.5387   8.6903   9.3420   9.4568  10.0957  10.2665  10.5762  10.9512
    11.3222  11.4706  11.8399  11.9361  12.3214  12.6513  12.9570  13.1233
    13.2369  13.5084  13.5719  13.6523  13.7765  14.0717  14.2328  14.3214
    14.8742  14.9878  15.2649  15.7349  16.0395  16.2660  16.3827  16.4657
    16.9448  17.1407  17.4202  17.5490  17.6332  17.9189  18.0409  18.1072
    18.3146  18.5984  18.6728  18.8599  18.9747  19.0939  19.7011  19.8083
    19.9691  20.2358  20.3039  20.5725

     occupation numbers
     1.0000   1.0000   1.0000   1.0000   1.0000   1.0000   1.0000   1.0000
     1.0000   1.0000   1.0000   1.0000   1.0000   1.0000   1.0000   1.0000
     1.0000   1.0000   1.0000   1.0000   1.0000   1.0000   1.0000   1.0000
     1.0000   1.0000   1.0000   1.0000   1.0000   1.0000   1.0000   1.0000
     1.0000   1.0000   1.0000   1.0000   1.0000   1.0000   1.0000   0.0000
     0.0000   0.0000   0.0000   0.0000   0.0000   0.0000   0.0000   0.0000
     0.0000   0.0000   0.0000   0.0000   0.0000   0.0000   0.0000   0.0000
     0.0000   0.0000   0.0000   0.0000   0.0000   0.0000   0.0000   0.0000
     0.0000   0.0000   0.0000   0.0000   0.0000   0.0000   0.0000   0.0000
     0.0000   0.0000   0.0000   0.0000   0.0000   0.0000   0.0000   0.0000
     0.0000   0.0000   0.0000   0.0000   0.0000   0.0000   0.0000   0.0000
     0.0000   0.0000   0.0000   0.0000   0.0000   0.0000   0.0000   0.0000
     0.0000   0.0000   0.0000   0.0000

     highest occupied, lowest unoccupied level (ev):     1.0618    2.4226

!    total energy              =    -805.34638647 Ry
     estimated scf accuracy    <       0.00000005 Ry

     convergence has been achieved in   3 iterations

     Using ACE for calculation of exact exchange
     ACE projected onto   100 (nbndproj) and applied to   100 (nbnd) bands

!!   total energy              =    -805.34638653 Ry
     Harris-Foulkes estimate   =    -805.34638613 Ry
     est. exchange err (dexx)  =       0.00000006 Ry
     - averaged Fock potential =      22.99437210 Ry
     + Fock energy (ACE)       =     -11.49719752 Ry

     EXX self-consistency reached

     Writing all to output data dir tmp/Sb2Te3-uatsx-c4-0.0.save/ :
     XML data file, charge density, pseudopotentials, collected wavefunctions

     General routines

     Parallel routines

     EXX routines

   This run was terminated on:   0:47:16  20May2025

   JOB DONE.