     Program PWSCF v.7.3.1 starts on 20May2025 at  3:58:26

     Waiting for input...
     Reading input from standard input

     Current dimensions of program PWSCF are:
     Max number of different atomic species (ntypx) = 10
     Max number of k-points (npk) =  40000
     Max angular momentum in pseudopotentials (lmaxx) =  4

     IMPORTANT: XC functional enforced from input :
     Exchange-correlation= GAUP
                           (   1   4  20   4   0   0   0)
     EXX-fraction              =        0.24
     Any further DFT definition will be discarded
     Please, verify this is what you really want

     K-points division:     npool     =       2
     R & G space division:  proc/nbgrp/npool/nimage =      84
     Subspace diagonalization in iterative solution of the eigenvalue problem:
     a serial algorithm will be used

     EXX: q-point mesh:     1    1    1
     EXX: setup a grid of 85 q-points centered on each k-point
     (k+q)-points:
   0.0000000   0.0000000   0.0000000         1    1
   0.0000000   0.0914887   0.0000000         2    1
   0.0000000   0.1829774   0.0000000         3    1
   0.0000000   0.2744661   0.0000000         4    1
   0.0000000   0.3659548   0.0000000         5    1
   0.0000000   0.4574435   0.0000000         6    1
   0.0000000   0.5489322   0.0000000         7    1
   0.0769231   0.0444120   0.0000000         8    1
   0.0769231   0.1359007   0.0000000         9    1
   0.0769231   0.2273894   0.0000000        10    1
   0.0769231   0.3188781   0.0000000        11    1
   0.0769231   0.4103668   0.0000000        12    1
   0.0769231   0.5018555   0.0000000        13    1
   0.0769231   0.5933442   0.0000000        14    1
   0.0769231  -0.5045202   0.0000000        15    1
   0.0769231  -0.4130315   0.0000000        16    1
   0.0769231  -0.3215428   0.0000000        17    1
   0.0769231  -0.2300541   0.0000000        18    1
   0.0769231  -0.1385654   0.0000000        19    1
   0.0769231  -0.0470767   0.0000000        20    1
   0.1538462   0.0888240   0.0000000        21    1
   0.1538462   0.1803127   0.0000000        22    1
   0.1538462   0.2718014   0.0000000        23    1
   0.1538462   0.3632901   0.0000000        24    1
   0.1538462   0.4547788   0.0000000        25    1
   0.1538462   0.5462675   0.0000000        26    1
   0.1538462   0.6377562   0.0000000        27    1
   0.1538462  -0.4601082   0.0000000        28    1
   0.1538462  -0.3686195   0.0000000        29    1
   0.1538462  -0.2771308   0.0000000        30    1
   0.1538462  -0.1856421   0.0000000        31    1
   0.1538462  -0.0941534   0.0000000        32    1
   0.1538462  -0.0026647   0.0000000        33    1
   0.2307692   0.1332360   0.0000000        34    1
   0.2307692   0.2247247   0.0000000        35    1
   0.2307692   0.3162134   0.0000000        36    1
   0.2307692   0.4077021   0.0000000        37    1
   0.2307692   0.4991908   0.0000000        38    1
   0.2307692   0.5906795   0.0000000        39    1
   0.2307692   0.6821681   0.0000000        40    1
   0.2307692  -0.4156962   0.0000000        41    1
   0.2307692  -0.3242075   0.0000000        42    1
   0.2307692  -0.2327188   0.0000000        43    1
   0.2307692  -0.1412301   0.0000000        44    1
   0.2307692  -0.0497414   0.0000000        45    1
   0.2307692   0.0417473   0.0000000        46    1
   0.3076923   0.1776480   0.0000000        47    1
   0.3076923   0.2691367   0.0000000        48    1
   0.3076923   0.3606253   0.0000000        49    1
   0.3076923   0.4521140   0.0000000        50    1
   0.3076923   0.5436027   0.0000000        51    1
   0.3076923   0.6350914   0.0000000        52    1
   0.3076923   0.7265801   0.0000000        53    1
   0.3076923  -0.3712842   0.0000000        54    1
   0.3076923  -0.2797955   0.0000000        55    1
   0.3076923  -0.1883068   0.0000000        56    1
   0.3076923  -0.0968181   0.0000000        57    1
   0.3076923  -0.0053294   0.0000000        58    1
   0.3076923   0.0861593   0.0000000        59    1
   0.3846154   0.2220599   0.0000000        60    1
[...]
   0.3846154   0.0390826   0.0000000        71    1
   0.3846154   0.1305712   0.0000000        72    1
   0.4615385   0.2664719   0.0000000        73    1
   0.4615385   0.3579606   0.0000000        74    1
   0.4615385   0.4494493   0.0000000        75    1
   0.4615385   0.5409380   0.0000000        76    1
   0.4615385   0.6324267   0.0000000        77    1
   0.4615385   0.7239154   0.0000000        78    1
   0.4615385   0.8154041   0.0000000        79    1
   0.4615385  -0.2824602   0.0000000        80    1
   0.4615385  -0.1909716   0.0000000        81    1
   0.4615385  -0.0994829   0.0000000        82    1
   0.4615385  -0.0079942   0.0000000        83    1
   0.4615385   0.0834945   0.0000000        84    1
   0.4615385   0.1749832   0.0000000        85    1

     Using Slab Decomposition

     bravais-lattice index     =            0
     lattice parameter (alat)  =       8.3900  a.u.
     unit-cell volume          =    2478.7943 (a.u.)^3
     number of atoms/cell      =            5
     number of atomic types    =            2
     number of electrons       =        78.00
     number of Kohn-Sham states=          100
     kinetic-energy cutoff     =      70.0000  Ry
     charge density cutoff     =     280.0000  Ry
     cutoff for Fock operator  =     280.0000  Ry
     scf convergence threshold =      1.0E-07
     mixing beta               =       0.7000
     number of iterations used =            8  plain     mixing
     Exchange-correlation= GAUP
                           (   1   4  20   4   0   0   0)
     EXX-fraction              =        0.24

     celldm(1)=   8.390002  celldm(2)=   0.000000  celldm(3)=   0.000000
     celldm(4)=   0.000000  celldm(5)=   0.000000  celldm(6)=   0.000000

     crystal axes: (cart. coord. in units of alat)
               a(1) = (   1.000000   0.000000   0.000000 )
               a(2) = (  -0.485437   0.840793   0.000000 )
               a(3) = (   0.000000   0.000000   4.991890 )

     reciprocal axes: (cart. coord. in units 2 pi/alat)
               b(1) = (  1.000000  0.577356 -0.000000 )
               b(2) = (  0.000000  1.189353  0.000000 )
               b(3) = (  0.000000 -0.000000  0.200325 )

     PseudoPot. # 1 for Sb read from file:
     /zfs-home/202401017n/pseudos/Sb_ONCV_PBE-1.2.upf
     MD5 check sum: 0417cd6c0fe8ce4611e2b23135f1abd9
     Pseudo is Norm-conserving, Zval = 15.0
     Generated using ONCVPSP code by D. R. Hamann
     Using radial grid of  602 points,  6 beta functions with:
                l(1) =   0
                l(2) =   0
                l(3) =   1
                l(4) =   1
                l(5) =   2
                l(6) =   2

     PseudoPot. # 2 for Te read from file:
     /zfs-home/202401017n/pseudos/Te_ONCV_PBE-1.2.upf
     MD5 check sum: dd4de4dac1e38587f63aaf3700bb29d3
     Pseudo is Norm-conserving, Zval = 16.0
     Generated using ONCVPSP code by D. R. Hamann
     Using radial grid of  602 points,  6 beta functions with:
                l(1) =   0
                l(2) =   0
                l(3) =   1
                l(4) =   1
                l(5) =   2
                l(6) =   2

     atomic species   valence    mass     pseudopotential
     Sb               15.00   121.76000     Sb( 1.00)
     Te               16.00   127.60000     Te( 1.00)

     No symmetry found

                                    s                        frac. trans.

      isym =  1     identity

 cryst.   s( 1) = (     1          0          0      )
                  (     0          1          0      )
                  (     0          0          1      )

 cart.    s( 1) = (  1.0000000  0.0000000  0.0000000 )
                  (  0.0000000  1.0000000  0.0000000 )
                  (  0.0000000  0.0000000  1.0000000 )

   Cartesian axes

     site n.     atom                  positions (alat units)
         1        Sb     tau(   1) = (   0.5867812   0.4172984   2.9417443  )
         2        Te     tau(   2) = (   0.5754457   0.3979752   1.6726131  )
         3        Sb     tau(   3) = (   0.0727921   0.1220272   2.0501240  )
         4        Te     tau(   4) = (   0.0840698   0.1416820   3.3192296  )
         5        Te     tau(   5) = (   0.0870265   0.6902229   2.4959189  )

     Parameters for Dispersion (Grimme-D2) Correction:
       atom      VdW radius       C_6

        Sb         3.555       1333.532
        Te         3.575       1101.101

   Crystallographic axes

     site n.     atom                  positions (cryst. coord.)
         1        Sb     tau(   1) = (  0.8277109  0.4963151  0.5893047  )
         2        Te     tau(   2) = (  0.8052190  0.4733330  0.3350661  )
         3        Sb     tau(   3) = (  0.1432452  0.1451335  0.4106909  )
         4        Te     tau(   4) = (  0.1658708  0.1685099  0.6649244  )
         5        Te     tau(   5) = (  0.4855307  0.8209187  0.4999948  )

     number of k points=    85
                       cart. coord. in units 2pi/alat
        k(    1) = (   0.0000000   0.0000000   0.0000000), wk =   0.0118343
        k(    2) = (   0.0000000   0.0914887   0.0000000), wk =   0.0236686
        k(    3) = (   0.0000000   0.1829774   0.0000000), wk =   0.0236686
        k(    4) = (   0.0000000   0.2744661   0.0000000), wk =   0.0236686
        k(    5) = (   0.0000000   0.3659548   0.0000000), wk =   0.0236686
        k(    6) = (   0.0000000   0.4574435   0.0000000), wk =   0.0236686
        k(    7) = (   0.0000000   0.5489322   0.0000000), wk =   0.0236686
        k(    8) = (   0.0769231   0.0444120   0.0000000), wk =   0.0236686
        k(    9) = (   0.0769231   0.1359007   0.0000000), wk =   0.0236686
        k(   10) = (   0.0769231   0.2273894   0.0000000), wk =   0.0236686
        k(   11) = (   0.0769231   0.3188781   0.0000000), wk =   0.0236686
        k(   12) = (   0.0769231   0.4103668   0.0000000), wk =   0.0236686
        k(   13) = (   0.0769231   0.5018555   0.0000000), wk =   0.0236686
        k(   14) = (   0.0769231   0.5933442   0.0000000), wk =   0.0236686
        k(   15) = (   0.0769231  -0.5045202   0.0000000), wk =   0.0236686
        k(   16) = (   0.0769231  -0.4130315   0.0000000), wk =   0.0236686
        k(   17) = (   0.0769231  -0.3215428   0.0000000), wk =   0.0236686
        k(   18) = (   0.0769231  -0.2300541   0.0000000), wk =   0.0236686
        k(   19) = (   0.0769231  -0.1385654   0.0000000), wk =   0.0236686
        k(   20) = (   0.0769231  -0.0470767   0.0000000), wk =   0.0236686
        k(   21) = (   0.1538462   0.0888240   0.0000000), wk =   0.0236686
        k(   22) = (   0.1538462   0.1803127   0.0000000), wk =   0.0236686
        k(   23) = (   0.1538462   0.2718014   0.0000000), wk =   0.0236686
        k(   24) = (   0.1538462   0.3632901   0.0000000), wk =   0.0236686
        k(   25) = (   0.1538462   0.4547788   0.0000000), wk =   0.0236686
        k(   26) = (   0.1538462   0.5462675   0.0000000), wk =   0.0236686
        k(   27) = (   0.1538462   0.6377562   0.0000000), wk =   0.0236686
        k(   28) = (   0.1538462  -0.4601082   0.0000000), wk =   0.0236686
        k(   29) = (   0.1538462  -0.3686195   0.0000000), wk =   0.0236686
        k(   30) = (   0.1538462  -0.2771308   0.0000000), wk =   0.0236686
        k(   31) = (   0.1538462  -0.1856421   0.0000000), wk =   0.0236686
        k(   32) = (   0.1538462  -0.0941534   0.0000000), wk =   0.0236686
        k(   33) = (   0.1538462  -0.0026647   0.0000000), wk =   0.0236686
        k(   34) = (   0.2307692   0.1332360   0.0000000), wk =   0.0236686
        k(   35) = (   0.2307692   0.2247247   0.0000000), wk =   0.0236686
        k(   36) = (   0.2307692   0.3162134   0.0000000), wk =   0.0236686
        k(   37) = (   0.2307692   0.4077021   0.0000000), wk =   0.0236686
        k(   38) = (   0.2307692   0.4991908   0.0000000), wk =   0.0236686
        k(   39) = (   0.2307692   0.5906795   0.0000000), wk =   0.0236686
        k(   40) = (   0.2307692   0.6821681   0.0000000), wk =   0.0236686
        k(   41) = (   0.2307692  -0.4156962   0.0000000), wk =   0.0236686
        k(   42) = (   0.2307692  -0.3242075   0.0000000), wk =   0.0236686
        k(   43) = (   0.2307692  -0.2327188   0.0000000), wk =   0.0236686
        k(   44) = (   0.2307692  -0.1412301   0.0000000), wk =   0.0236686
        k(   45) = (   0.2307692  -0.0497414   0.0000000), wk =   0.0236686
        k(   46) = (   0.2307692   0.0417473   0.0000000), wk =   0.0236686
        k(   47) = (   0.3076923   0.1776480   0.0000000), wk =   0.0236686
        k(   48) = (   0.3076923   0.2691367   0.0000000), wk =   0.0236686
        k(   49) = (   0.3076923   0.3606253   0.0000000), wk =   0.0236686
        k(   50) = (   0.3076923   0.4521140   0.0000000), wk =   0.0236686
        k(   51) = (   0.3076923   0.5436027   0.0000000), wk =   0.0236686
        k(   52) = (   0.3076923   0.6350914   0.0000000), wk =   0.0236686
        k(   53) = (   0.3076923   0.7265801   0.0000000), wk =   0.0236686
        k(   54) = (   0.3076923  -0.3712842   0.0000000), wk =   0.0236686
        k(   55) = (   0.3076923  -0.2797955   0.0000000), wk =   0.0236686
        k(   56) = (   0.3076923  -0.1883068   0.0000000), wk =   0.0236686
        k(   57) = (   0.3076923  -0.0968181   0.0000000), wk =   0.0236686
        k(   58) = (   0.3076923  -0.0053294   0.0000000), wk =   0.0236686
        k(   59) = (   0.3076923   0.0861593   0.0000000), wk =   0.0236686
        k(   60) = (   0.3846154   0.2220599   0.0000000), wk =   0.0236686
[...]
        k(   71) = (   0.3846154   0.0390826   0.0000000), wk =   0.0236686
        k(   72) = (   0.3846154   0.1305712   0.0000000), wk =   0.0236686
        k(   73) = (   0.4615385   0.2664719   0.0000000), wk =   0.0236686
        k(   74) = (   0.4615385   0.3579606   0.0000000), wk =   0.0236686
        k(   75) = (   0.4615385   0.4494493   0.0000000), wk =   0.0236686
        k(   76) = (   0.4615385   0.5409380   0.0000000), wk =   0.0236686
        k(   77) = (   0.4615385   0.6324267   0.0000000), wk =   0.0236686
        k(   78) = (   0.4615385   0.7239154   0.0000000), wk =   0.0236686
        k(   79) = (   0.4615385   0.8154041   0.0000000), wk =   0.0236686
        k(   80) = (   0.4615385  -0.2824602   0.0000000), wk =   0.0236686
        k(   81) = (   0.4615385  -0.1909716   0.0000000), wk =   0.0236686
        k(   82) = (   0.4615385  -0.0994829   0.0000000), wk =   0.0236686
        k(   83) = (   0.4615385  -0.0079942   0.0000000), wk =   0.0236686
        k(   84) = (   0.4615385   0.0834945   0.0000000), wk =   0.0236686
        k(   85) = (   0.4615385   0.1749832   0.0000000), wk =   0.0236686

                       cryst. coord.
        k(    1) = (   0.0000000   0.0000000   0.0000000), wk =   0.0118343
        k(    2) = (   0.0000000   0.0769231   0.0000000), wk =   0.0236686
        k(    3) = (   0.0000000   0.1538462   0.0000000), wk =   0.0236686
        k(    4) = (   0.0000000   0.2307692   0.0000000), wk =   0.0236686
        k(    5) = (   0.0000000   0.3076923   0.0000000), wk =   0.0236686
        k(    6) = (   0.0000000   0.3846154   0.0000000), wk =   0.0236686
        k(    7) = (   0.0000000   0.4615385   0.0000000), wk =   0.0236686
        k(    8) = (   0.0769231   0.0000000   0.0000000), wk =   0.0236686
        k(    9) = (   0.0769231   0.0769231   0.0000000), wk =   0.0236686
        k(   10) = (   0.0769231   0.1538462   0.0000000), wk =   0.0236686
        k(   11) = (   0.0769231   0.2307692   0.0000000), wk =   0.0236686
        k(   12) = (   0.0769231   0.3076923   0.0000000), wk =   0.0236686
        k(   13) = (   0.0769231   0.3846154   0.0000000), wk =   0.0236686
        k(   14) = (   0.0769231   0.4615385   0.0000000), wk =   0.0236686
        k(   15) = (   0.0769231  -0.4615385   0.0000000), wk =   0.0236686
        k(   16) = (   0.0769231  -0.3846154   0.0000000), wk =   0.0236686
        k(   17) = (   0.0769231  -0.3076923   0.0000000), wk =   0.0236686
        k(   18) = (   0.0769231  -0.2307692   0.0000000), wk =   0.0236686
        k(   19) = (   0.0769231  -0.1538462   0.0000000), wk =   0.0236686
        k(   20) = (   0.0769231  -0.0769231   0.0000000), wk =   0.0236686
        k(   21) = (   0.1538462   0.0000000   0.0000000), wk =   0.0236686
        k(   22) = (   0.1538462   0.0769231   0.0000000), wk =   0.0236686
        k(   23) = (   0.1538462   0.1538462   0.0000000), wk =   0.0236686
        k(   24) = (   0.1538462   0.2307692   0.0000000), wk =   0.0236686
        k(   25) = (   0.1538462   0.3076923   0.0000000), wk =   0.0236686
        k(   26) = (   0.1538462   0.3846154   0.0000000), wk =   0.0236686
        k(   27) = (   0.1538462   0.4615385   0.0000000), wk =   0.0236686
        k(   28) = (   0.1538462  -0.4615385   0.0000000), wk =   0.0236686
        k(   29) = (   0.1538462  -0.3846154   0.0000000), wk =   0.0236686
        k(   30) = (   0.1538462  -0.3076923   0.0000000), wk =   0.0236686
        k(   31) = (   0.1538462  -0.2307692   0.0000000), wk =   0.0236686
        k(   32) = (   0.1538462  -0.1538462   0.0000000), wk =   0.0236686
        k(   33) = (   0.1538462  -0.0769231   0.0000000), wk =   0.0236686
        k(   34) = (   0.2307692  -0.0000000   0.0000000), wk =   0.0236686
        k(   35) = (   0.2307692   0.0769231   0.0000000), wk =   0.0236686
        k(   36) = (   0.2307692   0.1538462   0.0000000), wk =   0.0236686
        k(   37) = (   0.2307692   0.2307692   0.0000000), wk =   0.0236686
        k(   38) = (   0.2307692   0.3076923   0.0000000), wk =   0.0236686
        k(   39) = (   0.2307692   0.3846154   0.0000000), wk =   0.0236686
        k(   40) = (   0.2307692   0.4615385   0.0000000), wk =   0.0236686
        k(   41) = (   0.2307692  -0.4615385   0.0000000), wk =   0.0236686
        k(   42) = (   0.2307692  -0.3846154   0.0000000), wk =   0.0236686
        k(   43) = (   0.2307692  -0.3076923   0.0000000), wk =   0.0236686
        k(   44) = (   0.2307692  -0.2307692   0.0000000), wk =   0.0236686
        k(   45) = (   0.2307692  -0.1538462   0.0000000), wk =   0.0236686
        k(   46) = (   0.2307692  -0.0769231   0.0000000), wk =   0.0236686
        k(   47) = (   0.3076923   0.0000000   0.0000000), wk =   0.0236686
        k(   48) = (   0.3076923   0.0769231   0.0000000), wk =   0.0236686
        k(   49) = (   0.3076923   0.1538462   0.0000000), wk =   0.0236686
        k(   50) = (   0.3076923   0.2307692   0.0000000), wk =   0.0236686
        k(   51) = (   0.3076923   0.3076923   0.0000000), wk =   0.0236686
        k(   52) = (   0.3076923   0.3846154   0.0000000), wk =   0.0236686
        k(   53) = (   0.3076923   0.4615385   0.0000000), wk =   0.0236686
        k(   54) = (   0.3076923  -0.4615385   0.0000000), wk =   0.0236686
        k(   55) = (   0.3076923  -0.3846154   0.0000000), wk =   0.0236686
        k(   56) = (   0.3076923  -0.3076923   0.0000000), wk =   0.0236686
        k(   57) = (   0.3076923  -0.2307692   0.0000000), wk =   0.0236686
        k(   58) = (   0.3076923  -0.1538462   0.0000000), wk =   0.0236686
        k(   59) = (   0.3076923  -0.0769231   0.0000000), wk =   0.0236686
        k(   60) = (   0.3846154  -0.0000000   0.0000000), wk =   0.0236686
[...]
        k(   71) = (   0.3846154  -0.1538462   0.0000000), wk =   0.0236686
        k(   72) = (   0.3846154  -0.0769231   0.0000000), wk =   0.0236686
        k(   73) = (   0.4615385  -0.0000000   0.0000000), wk =   0.0236686
        k(   74) = (   0.4615385   0.0769231   0.0000000), wk =   0.0236686
        k(   75) = (   0.4615385   0.1538462   0.0000000), wk =   0.0236686
        k(   76) = (   0.4615385   0.2307692   0.0000000), wk =   0.0236686
        k(   77) = (   0.4615385   0.3076923   0.0000000), wk =   0.0236686
        k(   78) = (   0.4615385   0.3846154   0.0000000), wk =   0.0236686
        k(   79) = (   0.4615385   0.4615385   0.0000000), wk =   0.0236686
        k(   80) = (   0.4615385  -0.4615385   0.0000000), wk =   0.0236686
        k(   81) = (   0.4615385  -0.3846154   0.0000000), wk =   0.0236686
        k(   82) = (   0.4615385  -0.3076923   0.0000000), wk =   0.0236686
        k(   83) = (   0.4615385  -0.2307692   0.0000000), wk =   0.0236686
        k(   84) = (   0.4615385  -0.1538462   0.0000000), wk =   0.0236686
        k(   85) = (   0.4615385  -0.0769231   0.0000000), wk =   0.0236686

     Initial potential from superposition of free atoms

     starting charge      77.7638, renormalised to      78.0000

     negative rho (up, down):  6.597E-04 0.000E+00
     Starting wfcs are random

     Self-consistent Calculation

     iteration #  1     ecut=    70.00 Ry     beta= 0.70
     Davidson diagonalization with overlap

     ethr =  1.00E-02,  avg # of iterations =  9.1

     Threshold (ethr) on eigenvalues was too large:
     Diagonalizing with lowered threshold

     Davidson diagonalization with overlap

[...]

     negative rho (up, down):  5.552E-05 0.000E+00

     total energy              =    -806.58032104 Ry
     estimated scf accuracy    <       0.08581546 Ry

[...]

     c_bands:  1 eigenvalues not converged
     ethr =  1.10E-04,  avg # of iterations = 11.4

[...]

     negative rho (up, down):  2.588E-06 0.000E+00

[...]

     End of self-consistent calculation

          k = 0.0000 0.0000 0.0000 ( 24437 PWs)   bands (ev):

   -34.7692 -34.7690 -34.7689 -34.7687 -34.7375 -34.7371 -34.7322 -34.7321
   -34.7226 -34.7223 -34.6636 -34.6578 -34.6474 -34.6193 -34.6184 -27.5435
   -27.5435 -27.5430 -27.5428 -27.5360 -27.5357 -27.5322 -27.5321 -27.5302
   -27.5300 -10.7044 -10.1674  -9.0913  -6.3503  -4.9870  -0.2154  -0.0185
     0.2069   0.2209   0.3891   0.7128   0.8148   0.9555   1.1794   2.1353
     2.6666   2.7730   3.5811   3.7819   3.8465   6.1601   6.3473   6.9478
     7.3635   7.5414   7.7859   8.3291   8.5351   8.6747   8.6970   9.1252
     9.4823   9.6320   9.9717  10.0523  10.4707  10.9127  11.3166  11.3991
    11.4338  11.6332  12.7763  12.8029  13.7256  14.0034  14.1166  14.1708
    14.3658  15.0017  15.5684  15.9116  15.9398  15.9970  16.1482  16.2929
    16.6125  16.9008  16.9184  16.9624  17.2137  17.2162  17.2840  17.3034
    17.5025  17.5099  17.6100  17.7568  17.8055  18.0629  18.8173  18.8760
    18.9598  19.1732  19.1754  19.2601

     occupation numbers
     1.0000   1.0000   1.0000   1.0000   1.0000   1.0000   1.0000   1.0000
     1.0000   1.0000   1.0000   1.0000   1.0000   1.0000   1.0000   1.0000
     1.0000   1.0000   1.0000   1.0000   1.0000   1.0000   1.0000   1.0000
     1.0000   1.0000   1.0000   1.0000   1.0000   1.0000   1.0000   1.0000
     1.0000   1.0000   1.0000   1.0000   1.0000   1.0000   1.0000   0.0000
     0.0000   0.0000   0.0000   0.0000   0.0000   0.0000   0.0000   0.0000
     0.0000   0.0000   0.0000   0.0000   0.0000   0.0000   0.0000   0.0000
     0.0000   0.0000   0.0000   0.0000   0.0000   0.0000   0.0000   0.0000
     0.0000   0.0000   0.0000   0.0000   0.0000   0.0000   0.0000   0.0000
     0.0000   0.0000   0.0000   0.0000   0.0000   0.0000   0.0000   0.0000
     0.0000   0.0000   0.0000   0.0000   0.0000   0.0000   0.0000   0.0000
     0.0000   0.0000   0.0000   0.0000   0.0000   0.0000   0.0000   0.0000
     0.0000   0.0000   0.0000   0.0000

[...]

     highest occupied, lowest unoccupied level (ev):     1.6695    2.1353

!    total energy              =    -806.61799311 Ry
     estimated scf accuracy    <          4.4E-09 Ry

     convergence has been achieved in  10 iterations

     Using ACE for calculation of exact exchange

     EXX: now go back to refine exchange calculation

[...]

     Using ACE for calculation of exact exchange
     ACE projected onto   100 (nbndproj) and applied to   100 (nbnd) bands

     total energy              =    -805.32699807 Ry
     Harris-Foulkes estimate   =    -805.32701006 Ry
     est. exchange err (dexx)  =       0.00169812 Ry
     - averaged Fock potential =      22.89572875 Ry
     + Fock energy (ACE)       =     -11.46989229 Ry

[...]

     ethr =  4.94E-09,  avg # of iterations =  6.9

     total energy              =    -805.32635180 Ry
     estimated scf accuracy    <       0.00000028 Ry

[...]

     total energy              =    -805.32635224 Ry
     Harris-Foulkes estimate   =    -805.32635226 Ry
     est. exchange err (dexx)  =       0.00000041 Ry
     - averaged Fock potential =      22.94995666 Ry
     + Fock energy (ACE)       =     -11.47502732 Ry

     EXX: now go back to refine exchange calculation

     Self-consistent Calculation

     iteration #  1     ecut=    70.00 Ry     beta= 0.70
     Davidson diagonalization with overlap

     c_bands:  1 eigenvalues not converged
     ethr =  3.58E-10,  avg # of iterations =  6.6

     End of self-consistent calculation

[...]

          k = 0.4615 0.1750 0.0000 ( 24566 PWs)   bands (ev):

   -36.5799 -36.5795 -36.5715 -36.5711 -36.5353 -36.5349 -36.5326 -36.5321
   -36.5189 -36.5184 -36.2921 -36.2869 -36.2769 -36.2435 -36.2378 -29.2816
   -29.2811 -29.2776 -29.2769 -29.2683 -29.2668 -29.2570 -29.2564 -29.2433
   -29.2413 -11.3914 -11.1307 -10.7285  -9.0746  -8.4870  -4.2905  -3.0218
    -2.8018  -2.5433  -1.9203  -1.4219  -0.3916  -0.1322   0.5214   2.9227
     3.0231   3.4472   4.6591   4.9321   5.6744   5.9462   7.3966   8.0584
     8.3879   9.0426   9.2506   9.3145   9.8615  10.1395  10.4797  10.6182
    11.0188  11.2458  11.5868  11.7572  11.9299  12.2017  12.2912  12.7319
    12.8310  12.8803  13.2609  13.3658  13.7656  13.9728  14.1148  14.4467
    14.5401  14.7765  15.0750  15.2709  15.4442  15.5404  15.8341  16.0795
    16.2862  16.3097  16.4610  16.7400  17.0101  17.1824  17.2544  17.4674
    17.5952  17.7378  18.1198  18.1971  18.3433  18.7437  18.8697  19.1298
    19.2880  19.4238  19.5912  19.7892

     occupation numbers
     1.0000   1.0000   1.0000   1.0000   1.0000   1.0000   1.0000   1.0000
     1.0000   1.0000   1.0000   1.0000   1.0000   1.0000   1.0000   1.0000
     1.0000   1.0000   1.0000   1.0000   1.0000   1.0000   1.0000   1.0000
     1.0000   1.0000   1.0000   1.0000   1.0000   1.0000   1.0000   1.0000
     1.0000   1.0000   1.0000   1.0000   1.0000   1.0000   1.0000   0.0000
     0.0000   0.0000   0.0000   0.0000   0.0000   0.0000   0.0000   0.0000
     0.0000   0.0000   0.0000   0.0000   0.0000   0.0000   0.0000   0.0000
     0.0000   0.0000   0.0000   0.0000   0.0000   0.0000   0.0000   0.0000
     0.0000   0.0000   0.0000   0.0000   0.0000   0.0000   0.0000   0.0000
     0.0000   0.0000   0.0000   0.0000   0.0000   0.0000   0.0000   0.0000
     0.0000   0.0000   0.0000   0.0000   0.0000   0.0000   0.0000   0.0000
     0.0000   0.0000   0.0000   0.0000   0.0000   0.0000   0.0000   0.0000
     0.0000   0.0000   0.0000   0.0000

     highest occupied, lowest unoccupied level (ev):     0.8510    1.9528

!    total energy              =    -805.32635123 Ry
     estimated scf accuracy    <       0.00000006 Ry

     convergence has been achieved in   1 iterations

     Using ACE for calculation of exact exchange
     ACE projected onto   100 (nbndproj) and applied to   100 (nbnd) bands

!!   total energy              =    -805.32635131 Ry
     Harris-Foulkes estimate   =    -805.32635250 Ry
     est. exchange err (dexx)  =       0.00000008 Ry
     - averaged Fock potential =      22.95008423 Ry
     + Fock energy (ACE)       =     -11.47505698 Ry

     EXX self-consistency reached

     Writing all to output data dir tmp/Sb2Te3-uatsx-c4-3.0.save/ :
     XML data file, charge density, pseudopotentials, collected wavefunctions

     General routines

     Parallel routines

     EXX routines

   This run was terminated on:   5: 9: 7  20May2025

   JOB DONE.