     Program PWSCF v.7.3.1 starts on 20May2025 at  5:25: 0

     Waiting for input...
     Reading input from standard input

     Current dimensions of program PWSCF are:
     Max number of different atomic species (ntypx) = 10
     Max number of k-points (npk) =  40000
     Max angular momentum in pseudopotentials (lmaxx) =  4

     IMPORTANT: XC functional enforced from input :
     Exchange-correlation= GAUP
                           (   1   4  20   4   0   0   0)
     EXX-fraction              =        0.24
     Any further DFT definition will be discarded
     Please, verify this is what you really want

     K-points division:     npool     =       2
     R & G space division:  proc/nbgrp/npool/nimage =      84
     Subspace diagonalization in iterative solution of the eigenvalue problem:
     a serial algorithm will be used

     EXX: q-point mesh:     1    1    1
     EXX: setup a grid of 85 q-points centered on each k-point
     (k+q)-points:
   0.0000000   0.0000000   0.0000000         1    1
   0.0000000   0.0923769   0.0000000         2    1
   0.0000000   0.1847539   0.0000000         3    1
   0.0000000   0.2771308   0.0000000         4    1
   0.0000000   0.3695077   0.0000000         5    1
   0.0000000   0.4618847   0.0000000         6    1
   0.0000000   0.5542616   0.0000000         7    1
   0.0769231   0.0444120   0.0000000         8    1
   0.0769231   0.1367889   0.0000000         9    1
   0.0769231   0.2291659   0.0000000        10    1
   0.0769231   0.3215428   0.0000000        11    1
   0.0769231   0.4139197   0.0000000        12    1
   0.0769231   0.5062967   0.0000000        13    1
   0.0769231   0.5986736   0.0000000        14    1
   0.0769231  -0.5098496   0.0000000        15    1
   0.0769231  -0.4174727   0.0000000        16    1
   0.0769231  -0.3250958   0.0000000        17    1
   0.0769231  -0.2327188   0.0000000        18    1
   0.0769231  -0.1403419   0.0000000        19    1
   0.0769231  -0.0479649   0.0000000        20    1
   0.1538462   0.0888240   0.0000000        21    1
   0.1538462   0.1812009   0.0000000        22    1
   0.1538462   0.2735779   0.0000000        23    1
   0.1538462   0.3659548   0.0000000        24    1
   0.1538462   0.4583317   0.0000000        25    1
   0.1538462   0.5507087   0.0000000        26    1
   0.1538462   0.6430856   0.0000000        27    1
   0.1538462  -0.4654376   0.0000000        28    1
   0.1538462  -0.3730607   0.0000000        29    1
   0.1538462  -0.2806838   0.0000000        30    1
   0.1538462  -0.1883068   0.0000000        31    1
   0.1538462  -0.0959299   0.0000000        32    1
   0.1538462  -0.0035530   0.0000000        33    1
   0.2307692   0.1332360   0.0000000        34    1
   0.2307692   0.2256129   0.0000000        35    1
   0.2307692   0.3179898   0.0000000        36    1
   0.2307692   0.4103668   0.0000000        37    1
   0.2307692   0.5027437   0.0000000        38    1
   0.2307692   0.5951206   0.0000000        39    1
   0.2307692   0.6874976   0.0000000        40    1
   0.2307692  -0.4210257   0.0000000        41    1
   0.2307692  -0.3286487   0.0000000        42    1
   0.2307692  -0.2362718   0.0000000        43    1
   0.2307692  -0.1438948   0.0000000        44    1
   0.2307692  -0.0515179   0.0000000        45    1
   0.2307692   0.0408590   0.0000000        46    1
   0.3076923   0.1776480   0.0000000        47    1
   0.3076923   0.2700249   0.0000000        48    1
   0.3076923   0.3624018   0.0000000        49    1
   0.3076923   0.4547788   0.0000000        50    1
   0.3076923   0.5471557   0.0000000        51    1
   0.3076923   0.6395326   0.0000000        52    1
   0.3076923   0.7319096   0.0000000        53    1
   0.3076923  -0.3766137   0.0000000        54    1
   0.3076923  -0.2842367   0.0000000        55    1
   0.3076923  -0.1918598   0.0000000        56    1
   0.3076923  -0.0994829   0.0000000        57    1
   0.3076923  -0.0071059   0.0000000        58    1
   0.3076923   0.0852710   0.0000000        59    1
   0.3846154   0.2220599   0.0000000        60    1
[...]
   0.3846154   0.0373061   0.0000000        71    1
   0.3846154   0.1296830   0.0000000        72    1
   0.4615385   0.2664719   0.0000000        73    1
   0.4615385   0.3588489   0.0000000        74    1
   0.4615385   0.4512258   0.0000000        75    1
   0.4615385   0.5436027   0.0000000        76    1
   0.4615385   0.6359797   0.0000000        77    1
   0.4615385   0.7283566   0.0000000        78    1
   0.4615385   0.8207336   0.0000000        79    1
   0.4615385  -0.2877897   0.0000000        80    1
   0.4615385  -0.1954128   0.0000000        81    1
   0.4615385  -0.1030358   0.0000000        82    1
   0.4615385  -0.0106589   0.0000000        83    1
   0.4615385   0.0817181   0.0000000        84    1
   0.4615385   0.1740950   0.0000000        85    1

     Using Slab Decomposition

     bravais-lattice index     =            0
     lattice parameter (alat)  =       8.4715  a.u.
     unit-cell volume          =    2502.8602 (a.u.)^3
     number of atoms/cell      =            5
     number of atomic types    =            2
     number of electrons       =        78.00
     number of Kohn-Sham states=          100
     kinetic-energy cutoff     =      70.0000  Ry
     charge density cutoff     =     280.0000  Ry
     cutoff for Fock operator  =     280.0000  Ry
     scf convergence threshold =      1.0E-07
     mixing beta               =       0.7000
     number of iterations used =            8  plain     mixing
     Exchange-correlation= GAUP
                           (   1   4  20   4   0   0   0)
     EXX-fraction              =        0.24

     celldm(1)=   8.471459  celldm(2)=   0.000000  celldm(3)=   0.000000
     celldm(4)=   0.000000  celldm(5)=   0.000000  celldm(6)=   0.000000

     crystal axes: (cart. coord. in units of alat)
               a(1) = (   1.000000   0.000000   0.000000 )
               a(2) = (  -0.480769   0.832709   0.000000 )
               a(3) = (   0.000000   0.000000   4.943891 )

     reciprocal axes: (cart. coord. in units 2 pi/alat)
               b(1) = (  1.000000  0.577356 -0.000000 )
               b(2) = (  0.000000  1.200900  0.000000 )
               b(3) = (  0.000000 -0.000000  0.202270 )

     PseudoPot. # 1 for Sb read from file:
     /zfs-home/202401017n/pseudos/Sb_ONCV_PBE-1.2.upf
     MD5 check sum: 0417cd6c0fe8ce4611e2b23135f1abd9
     Pseudo is Norm-conserving, Zval = 15.0
     Generated using ONCVPSP code by D. R. Hamann
     Using radial grid of  602 points,  6 beta functions with:
                l(1) =   0
                l(2) =   0
                l(3) =   1
                l(4) =   1
                l(5) =   2
                l(6) =   2

     PseudoPot. # 2 for Te read from file:
     /zfs-home/202401017n/pseudos/Te_ONCV_PBE-1.2.upf
     MD5 check sum: dd4de4dac1e38587f63aaf3700bb29d3
     Pseudo is Norm-conserving, Zval = 16.0
     Generated using ONCVPSP code by D. R. Hamann
     Using radial grid of  602 points,  6 beta functions with:
                l(1) =   0
                l(2) =   0
                l(3) =   1
                l(4) =   1
                l(5) =   2
                l(6) =   2

     atomic species   valence    mass     pseudopotential
     Sb               15.00   121.76000     Sb( 1.00)
     Te               16.00   127.60000     Te( 1.00)

     No symmetry found

                                    s                        frac. trans.

      isym =  1     identity

 cryst.   s( 1) = (     1          0          0      )
                  (     0          1          0      )
                  (     0          0          1      )

 cart.    s( 1) = (  1.0000000  0.0000000  0.0000000 )
                  (  0.0000000  1.0000000  0.0000000 )
                  (  0.0000000  0.0000000  1.0000000 )

   Cartesian axes

     site n.     atom                  positions (alat units)
         1        Sb     tau(   1) = (   0.5904646   0.4157527   2.9115514  )
         2        Te     tau(   2) = (   0.5755298   0.3904446   1.6605492  )
         3        Sb     tau(   3) = (   0.0721083   0.1184920   2.0322939  )
         4        Te     tau(   4) = (   0.0869606   0.1439524   3.2833161  )
         5        Te     tau(   5) = (   0.0908738   0.6835524   2.4719228  )

     Parameters for Dispersion (Grimme-D2) Correction:
       atom      VdW radius       C_6

        Sb         3.555       1333.532
        Te         3.575       1101.101

   Crystallographic axes

     site n.     atom                  positions (cryst. coord.)
         1        Sb     tau(   1) = (  0.8305018  0.4992775  0.5889190  )
         2        Te     tau(   2) = (  0.8009552  0.4688850  0.3358790  )
         3        Sb     tau(   3) = (  0.1405204  0.1422971  0.4110717  )
         4        Te     tau(   4) = (  0.1700723  0.1728725  0.6641158  )
         5        Te     tau(   5) = (  0.4855268  0.8208782  0.4999954  )

     number of k points=    85
                       cart. coord. in units 2pi/alat
        k(    1) = (   0.0000000   0.0000000   0.0000000), wk =   0.0118343
        k(    2) = (   0.0000000   0.0923769   0.0000000), wk =   0.0236686
        k(    3) = (   0.0000000   0.1847539   0.0000000), wk =   0.0236686
        k(    4) = (   0.0000000   0.2771308   0.0000000), wk =   0.0236686
        k(    5) = (   0.0000000   0.3695077   0.0000000), wk =   0.0236686
        k(    6) = (   0.0000000   0.4618847   0.0000000), wk =   0.0236686
        k(    7) = (   0.0000000   0.5542616   0.0000000), wk =   0.0236686
        k(    8) = (   0.0769231   0.0444120   0.0000000), wk =   0.0236686
        k(    9) = (   0.0769231   0.1367889   0.0000000), wk =   0.0236686
        k(   10) = (   0.0769231   0.2291659   0.0000000), wk =   0.0236686
        k(   11) = (   0.0769231   0.3215428   0.0000000), wk =   0.0236686
        k(   12) = (   0.0769231   0.4139197   0.0000000), wk =   0.0236686
        k(   13) = (   0.0769231   0.5062967   0.0000000), wk =   0.0236686
        k(   14) = (   0.0769231   0.5986736   0.0000000), wk =   0.0236686
        k(   15) = (   0.0769231  -0.5098496   0.0000000), wk =   0.0236686
        k(   16) = (   0.0769231  -0.4174727   0.0000000), wk =   0.0236686
        k(   17) = (   0.0769231  -0.3250958   0.0000000), wk =   0.0236686
        k(   18) = (   0.0769231  -0.2327188   0.0000000), wk =   0.0236686
        k(   19) = (   0.0769231  -0.1403419   0.0000000), wk =   0.0236686
        k(   20) = (   0.0769231  -0.0479649   0.0000000), wk =   0.0236686
        k(   21) = (   0.1538462   0.0888240   0.0000000), wk =   0.0236686
        k(   22) = (   0.1538462   0.1812009   0.0000000), wk =   0.0236686
        k(   23) = (   0.1538462   0.2735779   0.0000000), wk =   0.0236686
        k(   24) = (   0.1538462   0.3659548   0.0000000), wk =   0.0236686
        k(   25) = (   0.1538462   0.4583317   0.0000000), wk =   0.0236686
        k(   26) = (   0.1538462   0.5507087   0.0000000), wk =   0.0236686
        k(   27) = (   0.1538462   0.6430856   0.0000000), wk =   0.0236686
        k(   28) = (   0.1538462  -0.4654376   0.0000000), wk =   0.0236686
        k(   29) = (   0.1538462  -0.3730607   0.0000000), wk =   0.0236686
        k(   30) = (   0.1538462  -0.2806838   0.0000000), wk =   0.0236686
        k(   31) = (   0.1538462  -0.1883068   0.0000000), wk =   0.0236686
        k(   32) = (   0.1538462  -0.0959299   0.0000000), wk =   0.0236686
        k(   33) = (   0.1538462  -0.0035530   0.0000000), wk =   0.0236686
        k(   34) = (   0.2307692   0.1332360   0.0000000), wk =   0.0236686
        k(   35) = (   0.2307692   0.2256129   0.0000000), wk =   0.0236686
        k(   36) = (   0.2307692   0.3179898   0.0000000), wk =   0.0236686
        k(   37) = (   0.2307692   0.4103668   0.0000000), wk =   0.0236686
        k(   38) = (   0.2307692   0.5027437   0.0000000), wk =   0.0236686
        k(   39) = (   0.2307692   0.5951206   0.0000000), wk =   0.0236686
        k(   40) = (   0.2307692   0.6874976   0.0000000), wk =   0.0236686
        k(   41) = (   0.2307692  -0.4210257   0.0000000), wk =   0.0236686
        k(   42) = (   0.2307692  -0.3286487   0.0000000), wk =   0.0236686
        k(   43) = (   0.2307692  -0.2362718   0.0000000), wk =   0.0236686
        k(   44) = (   0.2307692  -0.1438948   0.0000000), wk =   0.0236686
        k(   45) = (   0.2307692  -0.0515179   0.0000000), wk =   0.0236686
        k(   46) = (   0.2307692   0.0408590   0.0000000), wk =   0.0236686
        k(   47) = (   0.3076923   0.1776480   0.0000000), wk =   0.0236686
        k(   48) = (   0.3076923   0.2700249   0.0000000), wk =   0.0236686
        k(   49) = (   0.3076923   0.3624018   0.0000000), wk =   0.0236686
        k(   50) = (   0.3076923   0.4547788   0.0000000), wk =   0.0236686
        k(   51) = (   0.3076923   0.5471557   0.0000000), wk =   0.0236686
        k(   52) = (   0.3076923   0.6395326   0.0000000), wk =   0.0236686
        k(   53) = (   0.3076923   0.7319096   0.0000000), wk =   0.0236686
        k(   54) = (   0.3076923  -0.3766137   0.0000000), wk =   0.0236686
        k(   55) = (   0.3076923  -0.2842367   0.0000000), wk =   0.0236686
        k(   56) = (   0.3076923  -0.1918598   0.0000000), wk =   0.0236686
        k(   57) = (   0.3076923  -0.0994829   0.0000000), wk =   0.0236686
        k(   58) = (   0.3076923  -0.0071059   0.0000000), wk =   0.0236686
        k(   59) = (   0.3076923   0.0852710   0.0000000), wk =   0.0236686
        k(   60) = (   0.3846154   0.2220599   0.0000000), wk =   0.0236686
[...]
        k(   71) = (   0.3846154   0.0373061   0.0000000), wk =   0.0236686
        k(   72) = (   0.3846154   0.1296830   0.0000000), wk =   0.0236686
        k(   73) = (   0.4615385   0.2664719   0.0000000), wk =   0.0236686
        k(   74) = (   0.4615385   0.3588489   0.0000000), wk =   0.0236686
        k(   75) = (   0.4615385   0.4512258   0.0000000), wk =   0.0236686
        k(   76) = (   0.4615385   0.5436027   0.0000000), wk =   0.0236686
        k(   77) = (   0.4615385   0.6359797   0.0000000), wk =   0.0236686
        k(   78) = (   0.4615385   0.7283566   0.0000000), wk =   0.0236686
        k(   79) = (   0.4615385   0.8207336   0.0000000), wk =   0.0236686
        k(   80) = (   0.4615385  -0.2877897   0.0000000), wk =   0.0236686
        k(   81) = (   0.4615385  -0.1954128   0.0000000), wk =   0.0236686
        k(   82) = (   0.4615385  -0.1030358   0.0000000), wk =   0.0236686
        k(   83) = (   0.4615385  -0.0106589   0.0000000), wk =   0.0236686
        k(   84) = (   0.4615385   0.0817181   0.0000000), wk =   0.0236686
        k(   85) = (   0.4615385   0.1740950   0.0000000), wk =   0.0236686

                       cryst. coord.
        k(    1) = (   0.0000000   0.0000000   0.0000000), wk =   0.0118343
        k(    2) = (   0.0000000   0.0769231   0.0000000), wk =   0.0236686
        k(    3) = (   0.0000000   0.1538462   0.0000000), wk =   0.0236686
        k(    4) = (   0.0000000   0.2307692   0.0000000), wk =   0.0236686
        k(    5) = (   0.0000000   0.3076923   0.0000000), wk =   0.0236686
        k(    6) = (   0.0000000   0.3846154   0.0000000), wk =   0.0236686
        k(    7) = (   0.0000000   0.4615385   0.0000000), wk =   0.0236686
        k(    8) = (   0.0769231   0.0000000   0.0000000), wk =   0.0236686
        k(    9) = (   0.0769231   0.0769231   0.0000000), wk =   0.0236686
        k(   10) = (   0.0769231   0.1538462   0.0000000), wk =   0.0236686
        k(   11) = (   0.0769231   0.2307692   0.0000000), wk =   0.0236686
        k(   12) = (   0.0769231   0.3076923   0.0000000), wk =   0.0236686
        k(   13) = (   0.0769231   0.3846154   0.0000000), wk =   0.0236686
        k(   14) = (   0.0769231   0.4615385   0.0000000), wk =   0.0236686
        k(   15) = (   0.0769231  -0.4615385   0.0000000), wk =   0.0236686
        k(   16) = (   0.0769231  -0.3846154   0.0000000), wk =   0.0236686
        k(   17) = (   0.0769231  -0.3076923   0.0000000), wk =   0.0236686
        k(   18) = (   0.0769231  -0.2307692   0.0000000), wk =   0.0236686
        k(   19) = (   0.0769231  -0.1538462   0.0000000), wk =   0.0236686
        k(   20) = (   0.0769231  -0.0769231   0.0000000), wk =   0.0236686
        k(   21) = (   0.1538462   0.0000000   0.0000000), wk =   0.0236686
        k(   22) = (   0.1538462   0.0769231   0.0000000), wk =   0.0236686
        k(   23) = (   0.1538462   0.1538462   0.0000000), wk =   0.0236686
        k(   24) = (   0.1538462   0.2307692   0.0000000), wk =   0.0236686
        k(   25) = (   0.1538462   0.3076923   0.0000000), wk =   0.0236686
        k(   26) = (   0.1538462   0.3846154   0.0000000), wk =   0.0236686
        k(   27) = (   0.1538462   0.4615385   0.0000000), wk =   0.0236686
        k(   28) = (   0.1538462  -0.4615385   0.0000000), wk =   0.0236686
        k(   29) = (   0.1538462  -0.3846154   0.0000000), wk =   0.0236686
        k(   30) = (   0.1538462  -0.3076923   0.0000000), wk =   0.0236686
        k(   31) = (   0.1538462  -0.2307692   0.0000000), wk =   0.0236686
        k(   32) = (   0.1538462  -0.1538462   0.0000000), wk =   0.0236686
        k(   33) = (   0.1538462  -0.0769231   0.0000000), wk =   0.0236686
        k(   34) = (   0.2307692  -0.0000000   0.0000000), wk =   0.0236686
        k(   35) = (   0.2307692   0.0769231   0.0000000), wk =   0.0236686
        k(   36) = (   0.2307692   0.1538462   0.0000000), wk =   0.0236686
        k(   37) = (   0.2307692   0.2307692   0.0000000), wk =   0.0236686
        k(   38) = (   0.2307692   0.3076923   0.0000000), wk =   0.0236686
        k(   39) = (   0.2307692   0.3846154   0.0000000), wk =   0.0236686
        k(   40) = (   0.2307692   0.4615385   0.0000000), wk =   0.0236686
        k(   41) = (   0.2307692  -0.4615385   0.0000000), wk =   0.0236686
        k(   42) = (   0.2307692  -0.3846154   0.0000000), wk =   0.0236686
        k(   43) = (   0.2307692  -0.3076923   0.0000000), wk =   0.0236686
        k(   44) = (   0.2307692  -0.2307692   0.0000000), wk =   0.0236686
        k(   45) = (   0.2307692  -0.1538462   0.0000000), wk =   0.0236686
        k(   46) = (   0.2307692  -0.0769231   0.0000000), wk =   0.0236686
        k(   47) = (   0.3076923   0.0000000   0.0000000), wk =   0.0236686
        k(   48) = (   0.3076923   0.0769231   0.0000000), wk =   0.0236686
        k(   49) = (   0.3076923   0.1538462   0.0000000), wk =   0.0236686
        k(   50) = (   0.3076923   0.2307692   0.0000000), wk =   0.0236686
        k(   51) = (   0.3076923   0.3076923   0.0000000), wk =   0.0236686
        k(   52) = (   0.3076923   0.3846154   0.0000000), wk =   0.0236686
        k(   53) = (   0.3076923   0.4615385   0.0000000), wk =   0.0236686
        k(   54) = (   0.3076923  -0.4615385   0.0000000), wk =   0.0236686
        k(   55) = (   0.3076923  -0.3846154   0.0000000), wk =   0.0236686
        k(   56) = (   0.3076923  -0.3076923   0.0000000), wk =   0.0236686
        k(   57) = (   0.3076923  -0.2307692   0.0000000), wk =   0.0236686
        k(   58) = (   0.3076923  -0.1538462   0.0000000), wk =   0.0236686
        k(   59) = (   0.3076923  -0.0769231   0.0000000), wk =   0.0236686
        k(   60) = (   0.3846154  -0.0000000   0.0000000), wk =   0.0236686
[...]
        k(   71) = (   0.3846154  -0.1538462   0.0000000), wk =   0.0236686
        k(   72) = (   0.3846154  -0.0769231   0.0000000), wk =   0.0236686
        k(   73) = (   0.4615385  -0.0000000   0.0000000), wk =   0.0236686
        k(   74) = (   0.4615385   0.0769231   0.0000000), wk =   0.0236686
        k(   75) = (   0.4615385   0.1538462   0.0000000), wk =   0.0236686
        k(   76) = (   0.4615385   0.2307692   0.0000000), wk =   0.0236686
        k(   77) = (   0.4615385   0.3076923   0.0000000), wk =   0.0236686
        k(   78) = (   0.4615385   0.3846154   0.0000000), wk =   0.0236686
        k(   79) = (   0.4615385   0.4615385   0.0000000), wk =   0.0236686
        k(   80) = (   0.4615385  -0.4615385   0.0000000), wk =   0.0236686
        k(   81) = (   0.4615385  -0.3846154   0.0000000), wk =   0.0236686
        k(   82) = (   0.4615385  -0.3076923   0.0000000), wk =   0.0236686
        k(   83) = (   0.4615385  -0.2307692   0.0000000), wk =   0.0236686
        k(   84) = (   0.4615385  -0.1538462   0.0000000), wk =   0.0236686
        k(   85) = (   0.4615385  -0.0769231   0.0000000), wk =   0.0236686

     Initial potential from superposition of free atoms

     starting charge      77.7638, renormalised to      78.0000

     negative rho (up, down):  6.641E-04 0.000E+00
     Starting wfcs are random

     Self-consistent Calculation

     iteration #  1     ecut=    70.00 Ry     beta= 0.70
     Davidson diagonalization with overlap

     ethr =  1.00E-02,  avg # of iterations =  9.1

     Threshold (ethr) on eigenvalues was too large:
     Diagonalizing with lowered threshold

     Davidson diagonalization with overlap

[...]

     negative rho (up, down):  5.553E-05 0.000E+00

     total energy              =    -806.57645209 Ry
     estimated scf accuracy    <       0.08804462 Ry

[...]

     c_bands:  1 eigenvalues not converged
     c_bands:  1 eigenvalues not converged
     ethr =  1.13E-04,  avg # of iterations = 11.5

[...]

     negative rho (up, down):  2.186E-06 0.000E+00

[...]

     End of self-consistent calculation

          k = 0.0000 0.0000 0.0000 ( 24691 PWs)   bands (ev):

   -34.8366 -34.8364 -34.8362 -34.8360 -34.8027 -34.8026 -34.7961 -34.7959
   -34.7862 -34.7861 -34.7332 -34.7292 -34.7153 -34.6913 -34.6897 -27.6198
   -27.6196 -27.6188 -27.6185 -27.6125 -27.6122 -27.6082 -27.6081 -27.6055
   -27.6052 -10.7449 -10.2040  -9.1323  -6.4005  -5.0633  -0.2889  -0.1150
     0.0799   0.1671   0.3148   0.6428   0.6851   0.8637   1.0879   1.9833
     2.5657   2.7059   3.4336   3.6991   3.7844   6.1063   6.2886   6.9157
     7.2037   7.4675   7.7541   8.2539   8.4538   8.5526   8.5890   9.1069
     9.3766   9.5709   9.9205   9.9766  10.4150  10.7812  11.2600  11.3296
    11.3689  11.5893  12.7352  12.7396  13.5854  13.8761  14.0935  14.0944
    14.3341  14.9274  15.3926  15.7314  15.8570  15.9508  16.0417  16.2311
    16.5376  16.6814  16.7423  16.8081  16.9944  17.0793  17.1449  17.1942
    17.3782  17.4506  17.5162  17.6776  17.7442  17.9768  18.6289  18.6740
    18.7705  18.9791  19.0794  19.1478

     occupation numbers
     1.0000   1.0000   1.0000   1.0000   1.0000   1.0000   1.0000   1.0000
     1.0000   1.0000   1.0000   1.0000   1.0000   1.0000   1.0000   1.0000
     1.0000   1.0000   1.0000   1.0000   1.0000   1.0000   1.0000   1.0000
     1.0000   1.0000   1.0000   1.0000   1.0000   1.0000   1.0000   1.0000
     1.0000   1.0000   1.0000   1.0000   1.0000   1.0000   1.0000   0.0000
     0.0000   0.0000   0.0000   0.0000   0.0000   0.0000   0.0000   0.0000
     0.0000   0.0000   0.0000   0.0000   0.0000   0.0000   0.0000   0.0000
     0.0000   0.0000   0.0000   0.0000   0.0000   0.0000   0.0000   0.0000
     0.0000   0.0000   0.0000   0.0000   0.0000   0.0000   0.0000   0.0000
     0.0000   0.0000   0.0000   0.0000   0.0000   0.0000   0.0000   0.0000
     0.0000   0.0000   0.0000   0.0000   0.0000   0.0000   0.0000   0.0000
     0.0000   0.0000   0.0000   0.0000   0.0000   0.0000   0.0000   0.0000
     0.0000   0.0000   0.0000   0.0000

[...]

     highest occupied, lowest unoccupied level (ev):     1.5914    1.9833

!    total energy              =    -806.61542788 Ry
     estimated scf accuracy    <          7.0E-09 Ry

     convergence has been achieved in  10 iterations

     Using ACE for calculation of exact exchange

     EXX: now go back to refine exchange calculation

[...]

     Using ACE for calculation of exact exchange
     ACE projected onto   100 (nbndproj) and applied to   100 (nbnd) bands

     total energy              =    -805.31989775 Ry
     Harris-Foulkes estimate   =    -805.31991022 Ry
     est. exchange err (dexx)  =       0.00169886 Ry
     - averaged Fock potential =      22.88154112 Ry
     + Fock energy (ACE)       =     -11.46286643 Ry

[...]

     total energy              =    -805.31924960 Ry
     Harris-Foulkes estimate   =    -805.31924925 Ry
     est. exchange err (dexx)  =       0.00000044 Ry
     - averaged Fock potential =      22.93592658 Ry
     + Fock energy (ACE)       =     -11.46801309 Ry

     EXX: now go back to refine exchange calculation

     Self-consistent Calculation

[...]

     ethr =  8.18E-09,  avg # of iterations = 11.1

[...]

     total energy              =    -805.31924764 Ry
     estimated scf accuracy    <       0.00000800 Ry

     iteration #  4     ecut=    70.00 Ry     beta= 0.70
     Davidson diagonalization with overlap

     c_bands:  1 eigenvalues not converged
     ethr =  8.18E-09,  avg # of iterations =  6.1

     End of self-consistent calculation

[...]

          k = 0.4615 0.1741 0.0000 ( 24787 PWs)   bands (ev):

   -36.6455 -36.6450 -36.6372 -36.6368 -36.5968 -36.5965 -36.5952 -36.5947
   -36.5799 -36.5795 -36.3597 -36.3539 -36.3465 -36.3143 -36.3087 -29.3555
   -29.3549 -29.3525 -29.3517 -29.3438 -29.3423 -29.3332 -29.3324 -29.3184
   -29.3164 -11.4600 -11.1998 -10.8003  -9.1452  -8.5547  -4.3228  -3.0618
    -2.8296  -2.5852  -1.9553  -1.4654  -0.4184  -0.1671   0.4893   2.8768
     2.9804   3.4118   4.5844   4.8655   5.6094   5.8939   7.3374   7.9629
     8.3018   8.9349   9.1302   9.2141   9.7589  10.0350  10.3771  10.5096
    10.9096  11.1479  11.4317  11.6046  11.7834  12.0594  12.1786  12.5988
    12.6741  12.7638  13.1592  13.2598  13.6623  13.8496  14.0410  14.3289
    14.4312  14.5928  14.8762  15.1389  15.3449  15.4078  15.7404  15.9790
    16.1551  16.2334  16.3847  16.6069  16.8316  17.0174  17.0856  17.2776
    17.3906  17.5666  17.9454  18.0614  18.1485  18.6566  18.7671  18.9675
    19.1899  19.3014  19.4890  19.5904

     occupation numbers
     1.0000   1.0000   1.0000   1.0000   1.0000   1.0000   1.0000   1.0000
     1.0000   1.0000   1.0000   1.0000   1.0000   1.0000   1.0000   1.0000
     1.0000   1.0000   1.0000   1.0000   1.0000   1.0000   1.0000   1.0000
     1.0000   1.0000   1.0000   1.0000   1.0000   1.0000   1.0000   1.0000
     1.0000   1.0000   1.0000   1.0000   1.0000   1.0000   1.0000   0.0000
     0.0000   0.0000   0.0000   0.0000   0.0000   0.0000   0.0000   0.0000
     0.0000   0.0000   0.0000   0.0000   0.0000   0.0000   0.0000   0.0000
     0.0000   0.0000   0.0000   0.0000   0.0000   0.0000   0.0000   0.0000
     0.0000   0.0000   0.0000   0.0000   0.0000   0.0000   0.0000   0.0000
     0.0000   0.0000   0.0000   0.0000   0.0000   0.0000   0.0000   0.0000
     0.0000   0.0000   0.0000   0.0000   0.0000   0.0000   0.0000   0.0000
     0.0000   0.0000   0.0000   0.0000   0.0000   0.0000   0.0000   0.0000
     0.0000   0.0000   0.0000   0.0000

     highest occupied, lowest unoccupied level (ev):     0.7864    1.7905

!    total energy              =    -805.31924987 Ry
     estimated scf accuracy    <       0.00000007 Ry

     convergence has been achieved in   4 iterations

     Using ACE for calculation of exact exchange
     ACE projected onto   100 (nbndproj) and applied to   100 (nbnd) bands

!!   total energy              =    -805.31924996 Ry
     Harris-Foulkes estimate   =    -805.31924852 Ry
     est. exchange err (dexx)  =       0.00000009 Ry
     - averaged Fock potential =      22.93604550 Ry
     + Fock energy (ACE)       =     -11.46803249 Ry

     EXX self-consistency reached

     Writing all to output data dir tmp/Sb2Te3-uatsx-c4-4.0.save/ :
     XML data file, charge density, pseudopotentials, collected wavefunctions

     General routines

     Parallel routines

     EXX routines

   This run was terminated on:   6:38:19  20May2025

   JOB DONE.