     Program PWSCF v.7.4.1 starts on 14Aug2025 at 20:17:55

     Waiting for input...
     Reading input from standard input

     Current dimensions of program PWSCF are:
     Max number of different atomic species (ntypx) = 10
     Max number of k-points (npk) =  40000
     Max angular momentum in pseudopotentials (lmaxx) =  4

     IMPORTANT: XC functional enforced from input :
     Exchange-correlation= PBE
                           (   1   4   3   4   0   0   0)
     Any further DFT definition will be discarded
     Please, verify this is what you really want

     Message from routine setup:
     no reason to have ecutrho>4*ecutwfc

     R & G space division:  proc/nbgrp/npool/nimage =      24
     Subspace diagonalization in iterative solution of the eigenvalue problem:
     a serial algorithm will be used

     Using Slab Decomposition

     bravais-lattice index     =            0
     lattice parameter (alat)  =       8.3085  a.u.
     unit-cell volume          =    2454.7283 (a.u.)^3
     number of atoms/cell      =            5
     number of atomic types    =            2
     number of electrons       =        78.00
     number of Kohn-Sham states=           39
     kinetic-energy cutoff     =      50.0000  Ry
     charge density cutoff     =     500.0000  Ry
     scf convergence threshold =      1.0E-07
     mixing beta               =       0.7000
     number of iterations used =            8  plain     mixing
     Exchange-correlation= PBE
                           (   1   4   3   4   0   0   0)

     celldm(1)=   8.308546  celldm(2)=   0.000000  celldm(3)=   0.000000
     celldm(4)=   0.000000  celldm(5)=   0.000000  celldm(6)=   0.000000

     crystal axes: (cart. coord. in units of alat)
               a(1) = (   1.000000   0.000000   0.000000 )
               a(2) = (  -0.490196   0.849036   0.000000 )
               a(3) = (   0.000000   0.000000   5.040830 )

     reciprocal axes: (cart. coord. in units 2 pi/alat)
               b(1) = (  1.000000  0.577356 -0.000000 )
               b(2) = (  0.000000  1.177806  0.000000 )
               b(3) = (  0.000000 -0.000000  0.198380 )

     PseudoPot. # 1 for Sb read from file:
     /zfs-home/202401017n1/pseudos/Sb_ONCV_PBE-1.2.upf
     MD5 check sum: 0417cd6c0fe8ce4611e2b23135f1abd9
     Pseudo is Norm-conserving, Zval = 15.0
     Generated using ONCVPSP code by D. R. Hamann
     Using radial grid of  602 points,  6 beta functions with:
                l(1) =   0
                l(2) =   0
                l(3) =   1
                l(4) =   1
                l(5) =   2
                l(6) =   2

     PseudoPot. # 2 for Te read from file:
     /zfs-home/202401017n1/pseudos/Te_ONCV_PBE-1.2.upf
     MD5 check sum: dd4de4dac1e38587f63aaf3700bb29d3
     Pseudo is Norm-conserving, Zval = 16.0
     Generated using ONCVPSP code by D. R. Hamann
     Using radial grid of  602 points,  6 beta functions with:
                l(1) =   0
                l(2) =   0
                l(3) =   1
                l(4) =   1
                l(5) =   2
                l(6) =   2

     atomic species   valence    mass     pseudopotential
     Sb               15.00   121.76000     Sb( 1.00)
     Te               16.00   127.60000     Te( 1.00)

     No symmetry found

                                    s                        frac. trans.

      isym =  1     identity

 cryst.   s( 1) = (     1          0          0      )
                  (     0          1          0      )
                  (     0          0          1      )

 cart.    s( 1) = (  1.0000000  0.0000000  0.0000000 )
                  (  0.0000000  1.0000000  0.0000000 )
                  (  0.0000000  0.0000000  1.0000000 )

   Cartesian axes

     site n.     atom                  positions (alat units)
         1        Sb     tau(   1) = (   0.5829733   0.4189608   2.9724649  )
         2        Te     tau(   2) = (   0.5752175   0.4057666   1.6850437  )
         3        Sb     tau(   3) = (   0.0736071   0.1257310   2.0683360  )
         4        Te     tau(   4) = (   0.0811854   0.1390911   3.3558017  )
         5        Te     tau(   5) = (   0.0831178   0.6970014   2.5203330  )

     Parameters for Dispersion (Grimme-D2) Correction:
       atom      VdW radius       C_6

        Sb         3.555       1333.532
        Te         3.575       1101.101

   Crystallographic axes

     site n.     atom                  positions (cryst. coord.)
         1        Sb     tau(   1) = (  0.8248627  0.4934545  0.5896776  )
         2        Te     tau(   2) = (  0.8094892  0.4779143  0.3342790  )
         3        Sb     tau(   3) = (  0.1461986  0.1480867  0.4103165  )
         4        Te     tau(   4) = (  0.1614904  0.1638223  0.6657240  )
         5        Te     tau(   5) = (  0.4855356  0.8209324  0.4999837  )

     number of k points=   221
                       cart. coord. in units 2pi/alat
        k(    1) = (   0.0000000   0.0000000   0.0000000), wk =   0.0045351
        k(    2) = (   0.0000000   0.0560860   0.0000000), wk =   0.0090703
        k(    3) = (   0.0000000   0.1121720   0.0000000), wk =   0.0090703
        k(    4) = (   0.0000000   0.1682580   0.0000000), wk =   0.0090703
        k(    5) = (   0.0000000   0.2243440   0.0000000), wk =   0.0090703
        k(    6) = (   0.0000000   0.2804300   0.0000000), wk =   0.0090703
        k(    7) = (   0.0000000   0.3365160   0.0000000), wk =   0.0090703
        k(    8) = (   0.0000000   0.3926020   0.0000000), wk =   0.0090703
        k(    9) = (   0.0000000   0.4486880   0.0000000), wk =   0.0090703
        k(   10) = (   0.0000000   0.5047740   0.0000000), wk =   0.0090703
        k(   11) = (   0.0000000   0.5608600   0.0000000), wk =   0.0090703
        k(   12) = (   0.0476190   0.0274931   0.0000000), wk =   0.0090703
        k(   13) = (   0.0476190   0.0835791   0.0000000), wk =   0.0090703
        k(   14) = (   0.0476190   0.1396651   0.0000000), wk =   0.0090703
        k(   15) = (   0.0476190   0.1957511   0.0000000), wk =   0.0090703
        k(   16) = (   0.0476190   0.2518371   0.0000000), wk =   0.0090703
        k(   17) = (   0.0476190   0.3079231   0.0000000), wk =   0.0090703
        k(   18) = (   0.0476190   0.3640091   0.0000000), wk =   0.0090703
        k(   19) = (   0.0476190   0.4200951   0.0000000), wk =   0.0090703
        k(   20) = (   0.0476190   0.4761811   0.0000000), wk =   0.0090703
        k(   21) = (   0.0476190   0.5322671   0.0000000), wk =   0.0090703
        k(   22) = (   0.0476190   0.5883531   0.0000000), wk =   0.0090703
        k(   23) = (   0.0476190  -0.5333668   0.0000000), wk =   0.0090703
        k(   24) = (   0.0476190  -0.4772808   0.0000000), wk =   0.0090703
        k(   25) = (   0.0476190  -0.4211948   0.0000000), wk =   0.0090703
        k(   26) = (   0.0476190  -0.3651088   0.0000000), wk =   0.0090703
        k(   27) = (   0.0476190  -0.3090228   0.0000000), wk =   0.0090703
        k(   28) = (   0.0476190  -0.2529369   0.0000000), wk =   0.0090703
        k(   29) = (   0.0476190  -0.1968509   0.0000000), wk =   0.0090703
        k(   30) = (   0.0476190  -0.1407649   0.0000000), wk =   0.0090703
        k(   31) = (   0.0476190  -0.0846789   0.0000000), wk =   0.0090703
        k(   32) = (   0.0476190  -0.0285929   0.0000000), wk =   0.0090703
        k(   33) = (   0.0952381   0.0549863   0.0000000), wk =   0.0090703
        k(   34) = (   0.0952381   0.1110723   0.0000000), wk =   0.0090703
        k(   35) = (   0.0952381   0.1671583   0.0000000), wk =   0.0090703
        k(   36) = (   0.0952381   0.2232443   0.0000000), wk =   0.0090703
        k(   37) = (   0.0952381   0.2793303   0.0000000), wk =   0.0090703
        k(   38) = (   0.0952381   0.3354163   0.0000000), wk =   0.0090703
        k(   39) = (   0.0952381   0.3915023   0.0000000), wk =   0.0090703
        k(   40) = (   0.0952381   0.4475883   0.0000000), wk =   0.0090703
        k(   41) = (   0.0952381   0.5036742   0.0000000), wk =   0.0090703
        k(   42) = (   0.0952381   0.5597602   0.0000000), wk =   0.0090703
        k(   43) = (   0.0952381   0.6158462   0.0000000), wk =   0.0090703
        k(   44) = (   0.0952381  -0.5058737   0.0000000), wk =   0.0090703
        k(   45) = (   0.0952381  -0.4497877   0.0000000), wk =   0.0090703
        k(   46) = (   0.0952381  -0.3937017   0.0000000), wk =   0.0090703
        k(   47) = (   0.0952381  -0.3376157   0.0000000), wk =   0.0090703
        k(   48) = (   0.0952381  -0.2815297   0.0000000), wk =   0.0090703
        k(   49) = (   0.0952381  -0.2254437   0.0000000), wk =   0.0090703
        k(   50) = (   0.0952381  -0.1693577   0.0000000), wk =   0.0090703
        k(   51) = (   0.0952381  -0.1132717   0.0000000), wk =   0.0090703
        k(   52) = (   0.0952381  -0.0571857   0.0000000), wk =   0.0090703
        k(   53) = (   0.0952381  -0.0010997   0.0000000), wk =   0.0090703
        k(   54) = (   0.1428571   0.0824794   0.0000000), wk =   0.0090703
        k(   55) = (   0.1428571   0.1385654   0.0000000), wk =   0.0090703
        k(   56) = (   0.1428571   0.1946514   0.0000000), wk =   0.0090703
        k(   57) = (   0.1428571   0.2507374   0.0000000), wk =   0.0090703
        k(   58) = (   0.1428571   0.3068234   0.0000000), wk =   0.0090703
        k(   59) = (   0.1428571   0.3629094   0.0000000), wk =   0.0090703
        k(   60) = (   0.1428571   0.4189954   0.0000000), wk =   0.0090703
[...]
        k(  207) = (   0.4761905   0.6114473   0.0000000), wk =   0.0090703
        k(  208) = (   0.4761905   0.6675333   0.0000000), wk =   0.0090703
        k(  209) = (   0.4761905   0.7236193   0.0000000), wk =   0.0090703
        k(  210) = (   0.4761905   0.7797053   0.0000000), wk =   0.0090703
        k(  211) = (   0.4761905   0.8357913   0.0000000), wk =   0.0090703
        k(  212) = (   0.4761905  -0.2859286   0.0000000), wk =   0.0090703
        k(  213) = (   0.4761905  -0.2298426   0.0000000), wk =   0.0090703
        k(  214) = (   0.4761905  -0.1737566   0.0000000), wk =   0.0090703
        k(  215) = (   0.4761905  -0.1176706   0.0000000), wk =   0.0090703
        k(  216) = (   0.4761905  -0.0615846   0.0000000), wk =   0.0090703
        k(  217) = (   0.4761905  -0.0054986   0.0000000), wk =   0.0090703
        k(  218) = (   0.4761905   0.0505874   0.0000000), wk =   0.0090703
        k(  219) = (   0.4761905   0.1066734   0.0000000), wk =   0.0090703
        k(  220) = (   0.4761905   0.1627594   0.0000000), wk =   0.0090703
        k(  221) = (   0.4761905   0.2188454   0.0000000), wk =   0.0090703

                       cryst. coord.
        k(    1) = (   0.0000000   0.0000000   0.0000000), wk =   0.0045351
        k(    2) = (   0.0000000   0.0476190   0.0000000), wk =   0.0090703
        k(    3) = (   0.0000000   0.0952381   0.0000000), wk =   0.0090703
        k(    4) = (   0.0000000   0.1428571   0.0000000), wk =   0.0090703
        k(    5) = (   0.0000000   0.1904762   0.0000000), wk =   0.0090703
        k(    6) = (   0.0000000   0.2380952   0.0000000), wk =   0.0090703
        k(    7) = (   0.0000000   0.2857143   0.0000000), wk =   0.0090703
        k(    8) = (   0.0000000   0.3333333   0.0000000), wk =   0.0090703
        k(    9) = (   0.0000000   0.3809524   0.0000000), wk =   0.0090703
        k(   10) = (   0.0000000   0.4285714   0.0000000), wk =   0.0090703
        k(   11) = (   0.0000000   0.4761905   0.0000000), wk =   0.0090703
        k(   12) = (   0.0476190   0.0000000   0.0000000), wk =   0.0090703
        k(   13) = (   0.0476190   0.0476190   0.0000000), wk =   0.0090703
        k(   14) = (   0.0476190   0.0952381   0.0000000), wk =   0.0090703
        k(   15) = (   0.0476190   0.1428571   0.0000000), wk =   0.0090703
        k(   16) = (   0.0476190   0.1904762   0.0000000), wk =   0.0090703
        k(   17) = (   0.0476190   0.2380952   0.0000000), wk =   0.0090703
        k(   18) = (   0.0476190   0.2857143   0.0000000), wk =   0.0090703
        k(   19) = (   0.0476190   0.3333333   0.0000000), wk =   0.0090703
        k(   20) = (   0.0476190   0.3809524   0.0000000), wk =   0.0090703
        k(   21) = (   0.0476190   0.4285714   0.0000000), wk =   0.0090703
        k(   22) = (   0.0476190   0.4761905   0.0000000), wk =   0.0090703
        k(   23) = (   0.0476190  -0.4761905   0.0000000), wk =   0.0090703
        k(   24) = (   0.0476190  -0.4285714   0.0000000), wk =   0.0090703
        k(   25) = (   0.0476190  -0.3809524   0.0000000), wk =   0.0090703
        k(   26) = (   0.0476190  -0.3333333   0.0000000), wk =   0.0090703
        k(   27) = (   0.0476190  -0.2857143   0.0000000), wk =   0.0090703
        k(   28) = (   0.0476190  -0.2380952   0.0000000), wk =   0.0090703
        k(   29) = (   0.0476190  -0.1904762   0.0000000), wk =   0.0090703
        k(   30) = (   0.0476190  -0.1428571   0.0000000), wk =   0.0090703
        k(   31) = (   0.0476190  -0.0952381   0.0000000), wk =   0.0090703
        k(   32) = (   0.0476190  -0.0476190   0.0000000), wk =   0.0090703
        k(   33) = (   0.0952381   0.0000000   0.0000000), wk =   0.0090703
        k(   34) = (   0.0952381   0.0476190   0.0000000), wk =   0.0090703
        k(   35) = (   0.0952381   0.0952381   0.0000000), wk =   0.0090703
        k(   36) = (   0.0952381   0.1428571   0.0000000), wk =   0.0090703
        k(   37) = (   0.0952381   0.1904762   0.0000000), wk =   0.0090703
        k(   38) = (   0.0952381   0.2380952   0.0000000), wk =   0.0090703
        k(   39) = (   0.0952381   0.2857143   0.0000000), wk =   0.0090703
        k(   40) = (   0.0952381   0.3333333   0.0000000), wk =   0.0090703
        k(   41) = (   0.0952381   0.3809524   0.0000000), wk =   0.0090703
        k(   42) = (   0.0952381   0.4285714   0.0000000), wk =   0.0090703
        k(   43) = (   0.0952381   0.4761905   0.0000000), wk =   0.0090703
        k(   44) = (   0.0952381  -0.4761905   0.0000000), wk =   0.0090703
        k(   45) = (   0.0952381  -0.4285714   0.0000000), wk =   0.0090703
        k(   46) = (   0.0952381  -0.3809524   0.0000000), wk =   0.0090703
        k(   47) = (   0.0952381  -0.3333333   0.0000000), wk =   0.0090703
        k(   48) = (   0.0952381  -0.2857143   0.0000000), wk =   0.0090703
        k(   49) = (   0.0952381  -0.2380952   0.0000000), wk =   0.0090703
        k(   50) = (   0.0952381  -0.1904762   0.0000000), wk =   0.0090703
        k(   51) = (   0.0952381  -0.1428571   0.0000000), wk =   0.0090703
        k(   52) = (   0.0952381  -0.0952381   0.0000000), wk =   0.0090703
        k(   53) = (   0.0952381  -0.0476190   0.0000000), wk =   0.0090703
        k(   54) = (   0.1428571   0.0000000   0.0000000), wk =   0.0090703
        k(   55) = (   0.1428571   0.0476190   0.0000000), wk =   0.0090703
        k(   56) = (   0.1428571   0.0952381   0.0000000), wk =   0.0090703
        k(   57) = (   0.1428571   0.1428571   0.0000000), wk =   0.0090703
        k(   58) = (   0.1428571   0.1904762   0.0000000), wk =   0.0090703
        k(   59) = (   0.1428571   0.2380952   0.0000000), wk =   0.0090703
        k(   60) = (   0.1428571   0.2857143   0.0000000), wk =   0.0090703
[...]
        k(  207) = (   0.4761905   0.2857143   0.0000000), wk =   0.0090703
        k(  208) = (   0.4761905   0.3333333   0.0000000), wk =   0.0090703
        k(  209) = (   0.4761905   0.3809524   0.0000000), wk =   0.0090703
        k(  210) = (   0.4761905   0.4285714   0.0000000), wk =   0.0090703
        k(  211) = (   0.4761905   0.4761905   0.0000000), wk =   0.0090703
        k(  212) = (   0.4761905  -0.4761905   0.0000000), wk =   0.0090703
        k(  213) = (   0.4761905  -0.4285714   0.0000000), wk =   0.0090703
        k(  214) = (   0.4761905  -0.3809524   0.0000000), wk =   0.0090703
        k(  215) = (   0.4761905  -0.3333333   0.0000000), wk =   0.0090703
        k(  216) = (   0.4761905  -0.2857143   0.0000000), wk =   0.0090703
        k(  217) = (   0.4761905  -0.2380952   0.0000000), wk =   0.0090703
        k(  218) = (   0.4761905  -0.1904762   0.0000000), wk =   0.0090703
        k(  219) = (   0.4761905  -0.1428571   0.0000000), wk =   0.0090703
        k(  220) = (   0.4761905  -0.0952381   0.0000000), wk =   0.0090703
        k(  221) = (   0.4761905  -0.0476190   0.0000000), wk =   0.0090703

     Initial potential from superposition of free atoms

     starting charge      77.7638, renormalised to      78.0000

     negative rho (up, down):  3.860E-04 0.000E+00
     Starting wfcs are random

     Self-consistent Calculation

     iteration #  1     ecut=    50.00 Ry     beta= 0.70
     Davidson diagonalization with overlap

     ethr =  1.00E-02,  avg # of iterations = 11.0

     Threshold (ethr) on eigenvalues was too large:
     Diagonalizing with lowered threshold

     Davidson diagonalization with overlap

[...]

     negative rho (up, down):  1.621E-05 0.000E+00

     total energy              =    -806.58031325 Ry
     estimated scf accuracy    <       0.08464648 Ry

[...]

     negative rho (up, down):  2.713E-08 0.000E+00

[...]

     total energy              =    -806.61812271 Ry
     estimated scf accuracy    <       0.00000014 Ry

     iteration # 14     ecut=    50.00 Ry     beta= 0.70
     Davidson diagonalization with overlap

     ethr =  1.82E-10,  avg # of iterations =  2.1

     End of self-consistent calculation

          k = 0.0000 0.0000 0.0000 ( 14667 PWs)   bands (ev):

   -34.7014 -34.7012 -34.7011 -34.7009 -34.6717 -34.6712 -34.6680 -34.6678
   -34.6586 -34.6582 -34.5936 -34.5856 -34.5787 -34.5466 -34.5462 -27.4672
   -27.4670 -27.4670 -27.4667 -27.4592 -27.4588 -27.4558 -27.4555 -27.4545
   -27.4542 -10.6618 -10.1288  -9.0475  -6.2976  -4.9086  -0.1730   0.1089
     0.2787   0.3381   0.4639   0.7838   0.9470   1.0452   1.2799

     occupation numbers
     1.0000   1.0000   1.0000   1.0000   1.0000   1.0000   1.0000   1.0000
     1.0000   1.0000   1.0000   1.0000   1.0000   1.0000   1.0000   1.0000
     1.0000   1.0000   1.0000   1.0000   1.0000   1.0000   1.0000   1.0000
     1.0000   1.0000   1.0000   1.0000   1.0000   1.0000   1.0000   1.0000
     1.0000   1.0000   1.0000   1.0000   1.0000   1.0000   1.0000

[...]

          k = 0.4762 0.2188 0.0000 ( 14655 PWs)   bands (ev):

   -34.7010 -34.7007 -34.7002 -34.6999 -34.6719 -34.6715 -34.6681 -34.6678
   -34.6580 -34.6577 -34.5930 -34.5859 -34.5788 -34.5464 -34.5453 -27.4674
   -27.4671 -27.4643 -27.4640 -27.4589 -27.4586 -27.4568 -27.4565 -27.4550
   -27.4541  -9.1685  -8.9748  -8.7944  -7.2600  -6.7207  -2.9824  -1.7362
    -1.4940  -1.2318  -0.6190  -0.2803   0.5552   0.8733   1.1521

     occupation numbers
     1.0000   1.0000   1.0000   1.0000   1.0000   1.0000   1.0000   1.0000
     1.0000   1.0000   1.0000   1.0000   1.0000   1.0000   1.0000   1.0000
     1.0000   1.0000   1.0000   1.0000   1.0000   1.0000   1.0000   1.0000
     1.0000   1.0000   1.0000   1.0000   1.0000   1.0000   1.0000   1.0000
     1.0000   1.0000   1.0000   1.0000   1.0000   1.0000   1.0000

     highest occupied level (ev):     1.7507

!    total energy              =    -806.61812268 Ry
     estimated scf accuracy    <       0.00000003 Ry

     The total energy is the sum of the following terms:
     one-electron contribution =   -3389.96607130 Ry
     hartree contribution      =    1689.97886971 Ry
     xc contribution           =     -87.15231123 Ry
     ewald contribution        =     980.61955469 Ry
     Dispersion Correction     =      -0.09816455 Ry

     convergence has been achieved in  14 iterations

     Writing all to output data dir tmp/Sb2Te3-uatsx-c3-2.0.save/ :
     XML data file, charge density, pseudopotentials, collected wavefunctions

     General routines

     Parallel routines

   This run was terminated on:  20:22:24  14Aug2025

   JOB DONE.