     Program PWSCF v.7.4.1 starts on 13Aug2025 at 16:36:59

     Waiting for input...
     Reading input from standard input

     Current dimensions of program PWSCF are:
     Max number of different atomic species (ntypx) = 10
     Max number of k-points (npk) =  40000
     Max angular momentum in pseudopotentials (lmaxx) =  4

     IMPORTANT: XC functional enforced from input :
     Exchange-correlation= PBE
                           (   1   4   3   4   0   0   0)
     Any further DFT definition will be discarded
     Please, verify this is what you really want

     Message from routine setup:
     no reason to have ecutrho>4*ecutwfc

     R & G space division:  proc/nbgrp/npool/nimage =      24
     Subspace diagonalization in iterative solution of the eigenvalue problem:
     a serial algorithm will be used

     Using Slab Decomposition

     bravais-lattice index     =            0
     lattice parameter (alat)  =       8.5529  a.u.
     unit-cell volume          =    2526.9262 (a.u.)^3
     number of atoms/cell      =            5
     number of atomic types    =            2
     number of electrons       =        78.00
     number of Kohn-Sham states=           39
     kinetic-energy cutoff     =      50.0000  Ry
     charge density cutoff     =     500.0000  Ry
     scf convergence threshold =      1.0E-07
     mixing beta               =       0.7000
     number of iterations used =            8  plain     mixing
     Exchange-correlation= PBE
                           (   1   4   3   4   0   0   0)

     celldm(1)=   8.552915  celldm(2)=   0.000000  celldm(3)=   0.000000
     celldm(4)=   0.000000  celldm(5)=   0.000000  celldm(6)=   0.000000

     crystal axes: (cart. coord. in units of alat)
               a(1) = (   1.000000   0.000000   0.000000 )
               a(2) = (  -0.476190   0.824778   0.000000 )
               a(3) = (   0.000000   0.000000   4.896807 )

     reciprocal axes: (cart. coord. in units 2 pi/alat)
               b(1) = (  1.000000  0.577356 -0.000000 )
               b(2) = (  0.000000  1.212447  0.000000 )
               b(3) = (  0.000000 -0.000000  0.204215 )

     PseudoPot. # 1 for Sb read from file:
     /zfs-home/202401017n1/pseudos/Sb_ONCV_PBE-1.2.upf
     MD5 check sum: 0417cd6c0fe8ce4611e2b23135f1abd9
     Pseudo is Norm-conserving, Zval = 15.0
     Generated using ONCVPSP code by D. R. Hamann
     Using radial grid of  602 points,  6 beta functions with:
                l(1) =   0
                l(2) =   0
                l(3) =   1
                l(4) =   1
                l(5) =   2
                l(6) =   2

     PseudoPot. # 2 for Te read from file:
     /zfs-home/202401017n1/pseudos/Te_ONCV_PBE-1.2.upf
     MD5 check sum: dd4de4dac1e38587f63aaf3700bb29d3
     Pseudo is Norm-conserving, Zval = 16.0
     Generated using ONCVPSP code by D. R. Hamann
     Using radial grid of  602 points,  6 beta functions with:
                l(1) =   0
                l(2) =   0
                l(3) =   1
                l(4) =   1
                l(5) =   2
                l(6) =   2

     atomic species   valence    mass     pseudopotential
     Sb               15.00   121.76000     Sb( 1.00)
     Te               16.00   127.60000     Te( 1.00)

     No symmetry found

                                    s                        frac. trans.

      isym =  1     identity

 cryst.   s( 1) = (     1          0          0      )
                  (     0          1          0      )
                  (     0          0          1      )

 cart.    s( 1) = (  1.0000000  0.0000000  0.0000000 )
                  (  0.0000000  1.0000000  0.0000000 )
                  (  0.0000000  0.0000000  1.0000000 )

   Cartesian axes

     site n.     atom                  positions (alat units)
         1        Sb     tau(   1) = (   0.5941563   0.4140600   2.8819763  )
         2        Te     tau(   2) = (   0.5757813   0.3831770   1.6487259  )
         3        Sb     tau(   3) = (   0.0713597   0.1150985   2.0147862  )
         4        Te     tau(   4) = (   0.0896521   0.1461334   3.2480478  )
         5        Te     tau(   5) = (   0.0946223   0.6770376   2.4483865  )

   Crystallographic axes

     site n.     atom                  positions (cryst. coord.)
         1        Sb     tau(   1) = (  0.8332162  0.5020259  0.5885420  )
         2        Te     tau(   2) = (  0.7970108  0.4645820  0.3366941  )
         3        Sb     tau(   3) = (  0.1378125  0.1395508  0.4114490  )
         4        Te     tau(   4) = (  0.1740231  0.1771791  0.6632992  )
         5        Te     tau(   5) = (  0.4855140  0.8208724  0.4999966  )

     number of k points=   221
                       cart. coord. in units 2pi/alat
        k(    1) = (   0.0000000   0.0000000   0.0000000), wk =   0.0045351
        k(    2) = (   0.0000000   0.0577356   0.0000000), wk =   0.0090703
        k(    3) = (   0.0000000   0.1154712   0.0000000), wk =   0.0090703
        k(    4) = (   0.0000000   0.1732068   0.0000000), wk =   0.0090703
        k(    5) = (   0.0000000   0.2309423   0.0000000), wk =   0.0090703
        k(    6) = (   0.0000000   0.2886779   0.0000000), wk =   0.0090703
        k(    7) = (   0.0000000   0.3464135   0.0000000), wk =   0.0090703
        k(    8) = (   0.0000000   0.4041491   0.0000000), wk =   0.0090703
        k(    9) = (   0.0000000   0.4618847   0.0000000), wk =   0.0090703
        k(   10) = (   0.0000000   0.5196203   0.0000000), wk =   0.0090703
        k(   11) = (   0.0000000   0.5773559   0.0000000), wk =   0.0090703
        k(   12) = (   0.0476190   0.0274931   0.0000000), wk =   0.0090703
        k(   13) = (   0.0476190   0.0852287   0.0000000), wk =   0.0090703
        k(   14) = (   0.0476190   0.1429643   0.0000000), wk =   0.0090703
        k(   15) = (   0.0476190   0.2006999   0.0000000), wk =   0.0090703
        k(   16) = (   0.0476190   0.2584355   0.0000000), wk =   0.0090703
        k(   17) = (   0.0476190   0.3161711   0.0000000), wk =   0.0090703
        k(   18) = (   0.0476190   0.3739066   0.0000000), wk =   0.0090703
        k(   19) = (   0.0476190   0.4316422   0.0000000), wk =   0.0090703
        k(   20) = (   0.0476190   0.4893778   0.0000000), wk =   0.0090703
        k(   21) = (   0.0476190   0.5471134   0.0000000), wk =   0.0090703
        k(   22) = (   0.0476190   0.6048490   0.0000000), wk =   0.0090703
        k(   23) = (   0.0476190  -0.5498627   0.0000000), wk =   0.0090703
        k(   24) = (   0.0476190  -0.4921271   0.0000000), wk =   0.0090703
        k(   25) = (   0.0476190  -0.4343915   0.0000000), wk =   0.0090703
        k(   26) = (   0.0476190  -0.3766560   0.0000000), wk =   0.0090703
        k(   27) = (   0.0476190  -0.3189204   0.0000000), wk =   0.0090703
        k(   28) = (   0.0476190  -0.2611848   0.0000000), wk =   0.0090703
        k(   29) = (   0.0476190  -0.2034492   0.0000000), wk =   0.0090703
        k(   30) = (   0.0476190  -0.1457136   0.0000000), wk =   0.0090703
        k(   31) = (   0.0476190  -0.0879780   0.0000000), wk =   0.0090703
        k(   32) = (   0.0476190  -0.0302424   0.0000000), wk =   0.0090703
        k(   33) = (   0.0952381   0.0549863   0.0000000), wk =   0.0090703
        k(   34) = (   0.0952381   0.1127219   0.0000000), wk =   0.0090703
        k(   35) = (   0.0952381   0.1704574   0.0000000), wk =   0.0090703
        k(   36) = (   0.0952381   0.2281930   0.0000000), wk =   0.0090703
        k(   37) = (   0.0952381   0.2859286   0.0000000), wk =   0.0090703
        k(   38) = (   0.0952381   0.3436642   0.0000000), wk =   0.0090703
        k(   39) = (   0.0952381   0.4013998   0.0000000), wk =   0.0090703
        k(   40) = (   0.0952381   0.4591354   0.0000000), wk =   0.0090703
        k(   41) = (   0.0952381   0.5168710   0.0000000), wk =   0.0090703
        k(   42) = (   0.0952381   0.5746065   0.0000000), wk =   0.0090703
        k(   43) = (   0.0952381   0.6323421   0.0000000), wk =   0.0090703
        k(   44) = (   0.0952381  -0.5223696   0.0000000), wk =   0.0090703
        k(   45) = (   0.0952381  -0.4646340   0.0000000), wk =   0.0090703
        k(   46) = (   0.0952381  -0.4068984   0.0000000), wk =   0.0090703
        k(   47) = (   0.0952381  -0.3491628   0.0000000), wk =   0.0090703
        k(   48) = (   0.0952381  -0.2914272   0.0000000), wk =   0.0090703
        k(   49) = (   0.0952381  -0.2336917   0.0000000), wk =   0.0090703
        k(   50) = (   0.0952381  -0.1759561   0.0000000), wk =   0.0090703
        k(   51) = (   0.0952381  -0.1182205   0.0000000), wk =   0.0090703
        k(   52) = (   0.0952381  -0.0604849   0.0000000), wk =   0.0090703
        k(   53) = (   0.0952381  -0.0027493   0.0000000), wk =   0.0090703
        k(   54) = (   0.1428571   0.0824794   0.0000000), wk =   0.0090703
        k(   55) = (   0.1428571   0.1402150   0.0000000), wk =   0.0090703
        k(   56) = (   0.1428571   0.1979506   0.0000000), wk =   0.0090703
        k(   57) = (   0.1428571   0.2556862   0.0000000), wk =   0.0090703
        k(   58) = (   0.1428571   0.3134217   0.0000000), wk =   0.0090703
        k(   59) = (   0.1428571   0.3711573   0.0000000), wk =   0.0090703
        k(   60) = (   0.1428571   0.4288929   0.0000000), wk =   0.0090703
[...]
        k(  207) = (   0.4761905   0.6213449   0.0000000), wk =   0.0090703
        k(  208) = (   0.4761905   0.6790805   0.0000000), wk =   0.0090703
        k(  209) = (   0.4761905   0.7368160   0.0000000), wk =   0.0090703
        k(  210) = (   0.4761905   0.7945516   0.0000000), wk =   0.0090703
        k(  211) = (   0.4761905   0.8522872   0.0000000), wk =   0.0090703
        k(  212) = (   0.4761905  -0.3024245   0.0000000), wk =   0.0090703
        k(  213) = (   0.4761905  -0.2446889   0.0000000), wk =   0.0090703
        k(  214) = (   0.4761905  -0.1869533   0.0000000), wk =   0.0090703
        k(  215) = (   0.4761905  -0.1292177   0.0000000), wk =   0.0090703
        k(  216) = (   0.4761905  -0.0714822   0.0000000), wk =   0.0090703
        k(  217) = (   0.4761905  -0.0137466   0.0000000), wk =   0.0090703
        k(  218) = (   0.4761905   0.0439890   0.0000000), wk =   0.0090703
        k(  219) = (   0.4761905   0.1017246   0.0000000), wk =   0.0090703
        k(  220) = (   0.4761905   0.1594602   0.0000000), wk =   0.0090703
        k(  221) = (   0.4761905   0.2171958   0.0000000), wk =   0.0090703

                       cryst. coord.
        k(    1) = (   0.0000000   0.0000000   0.0000000), wk =   0.0045351
        k(    2) = (   0.0000000   0.0476190   0.0000000), wk =   0.0090703
        k(    3) = (   0.0000000   0.0952381   0.0000000), wk =   0.0090703
        k(    4) = (   0.0000000   0.1428571   0.0000000), wk =   0.0090703
        k(    5) = (   0.0000000   0.1904762   0.0000000), wk =   0.0090703
        k(    6) = (   0.0000000   0.2380952   0.0000000), wk =   0.0090703
        k(    7) = (   0.0000000   0.2857143   0.0000000), wk =   0.0090703
        k(    8) = (   0.0000000   0.3333333   0.0000000), wk =   0.0090703
        k(    9) = (   0.0000000   0.3809524   0.0000000), wk =   0.0090703
        k(   10) = (   0.0000000   0.4285714   0.0000000), wk =   0.0090703
        k(   11) = (   0.0000000   0.4761905   0.0000000), wk =   0.0090703
        k(   12) = (   0.0476190   0.0000000   0.0000000), wk =   0.0090703
        k(   13) = (   0.0476190   0.0476190   0.0000000), wk =   0.0090703
        k(   14) = (   0.0476190   0.0952381   0.0000000), wk =   0.0090703
        k(   15) = (   0.0476190   0.1428571   0.0000000), wk =   0.0090703
        k(   16) = (   0.0476190   0.1904762   0.0000000), wk =   0.0090703
        k(   17) = (   0.0476190   0.2380952   0.0000000), wk =   0.0090703
        k(   18) = (   0.0476190   0.2857143   0.0000000), wk =   0.0090703
        k(   19) = (   0.0476190   0.3333333   0.0000000), wk =   0.0090703
        k(   20) = (   0.0476190   0.3809524   0.0000000), wk =   0.0090703
        k(   21) = (   0.0476190   0.4285714   0.0000000), wk =   0.0090703
        k(   22) = (   0.0476190   0.4761905   0.0000000), wk =   0.0090703
        k(   23) = (   0.0476190  -0.4761905   0.0000000), wk =   0.0090703
        k(   24) = (   0.0476190  -0.4285714   0.0000000), wk =   0.0090703
        k(   25) = (   0.0476190  -0.3809524   0.0000000), wk =   0.0090703
        k(   26) = (   0.0476190  -0.3333333   0.0000000), wk =   0.0090703
        k(   27) = (   0.0476190  -0.2857143   0.0000000), wk =   0.0090703
        k(   28) = (   0.0476190  -0.2380952   0.0000000), wk =   0.0090703
        k(   29) = (   0.0476190  -0.1904762   0.0000000), wk =   0.0090703
        k(   30) = (   0.0476190  -0.1428571   0.0000000), wk =   0.0090703
        k(   31) = (   0.0476190  -0.0952381   0.0000000), wk =   0.0090703
        k(   32) = (   0.0476190  -0.0476190   0.0000000), wk =   0.0090703
        k(   33) = (   0.0952381   0.0000000   0.0000000), wk =   0.0090703
        k(   34) = (   0.0952381   0.0476190   0.0000000), wk =   0.0090703
        k(   35) = (   0.0952381   0.0952381   0.0000000), wk =   0.0090703
        k(   36) = (   0.0952381   0.1428571   0.0000000), wk =   0.0090703
        k(   37) = (   0.0952381   0.1904762   0.0000000), wk =   0.0090703
        k(   38) = (   0.0952381   0.2380952   0.0000000), wk =   0.0090703
        k(   39) = (   0.0952381   0.2857143   0.0000000), wk =   0.0090703
        k(   40) = (   0.0952381   0.3333333   0.0000000), wk =   0.0090703
        k(   41) = (   0.0952381   0.3809524   0.0000000), wk =   0.0090703
        k(   42) = (   0.0952381   0.4285714   0.0000000), wk =   0.0090703
        k(   43) = (   0.0952381   0.4761905   0.0000000), wk =   0.0090703
        k(   44) = (   0.0952381  -0.4761905   0.0000000), wk =   0.0090703
        k(   45) = (   0.0952381  -0.4285714   0.0000000), wk =   0.0090703
        k(   46) = (   0.0952381  -0.3809524   0.0000000), wk =   0.0090703
        k(   47) = (   0.0952381  -0.3333333   0.0000000), wk =   0.0090703
        k(   48) = (   0.0952381  -0.2857143   0.0000000), wk =   0.0090703
        k(   49) = (   0.0952381  -0.2380952   0.0000000), wk =   0.0090703
        k(   50) = (   0.0952381  -0.1904762   0.0000000), wk =   0.0090703
        k(   51) = (   0.0952381  -0.1428571   0.0000000), wk =   0.0090703
        k(   52) = (   0.0952381  -0.0952381   0.0000000), wk =   0.0090703
        k(   53) = (   0.0952381  -0.0476190   0.0000000), wk =   0.0090703
        k(   54) = (   0.1428571   0.0000000   0.0000000), wk =   0.0090703
        k(   55) = (   0.1428571   0.0476190   0.0000000), wk =   0.0090703
        k(   56) = (   0.1428571   0.0952381   0.0000000), wk =   0.0090703
        k(   57) = (   0.1428571   0.1428571   0.0000000), wk =   0.0090703
        k(   58) = (   0.1428571   0.1904762   0.0000000), wk =   0.0090703
        k(   59) = (   0.1428571   0.2380952   0.0000000), wk =   0.0090703
        k(   60) = (   0.1428571   0.2857143   0.0000000), wk =   0.0090703
[...]
        k(  207) = (   0.4761905   0.2857143   0.0000000), wk =   0.0090703
        k(  208) = (   0.4761905   0.3333333   0.0000000), wk =   0.0090703
        k(  209) = (   0.4761905   0.3809524   0.0000000), wk =   0.0090703
        k(  210) = (   0.4761905   0.4285714   0.0000000), wk =   0.0090703
        k(  211) = (   0.4761905   0.4761905   0.0000000), wk =   0.0090703
        k(  212) = (   0.4761905  -0.4761905   0.0000000), wk =   0.0090703
        k(  213) = (   0.4761905  -0.4285714   0.0000000), wk =   0.0090703
        k(  214) = (   0.4761905  -0.3809524   0.0000000), wk =   0.0090703
        k(  215) = (   0.4761905  -0.3333333   0.0000000), wk =   0.0090703
        k(  216) = (   0.4761905  -0.2857143   0.0000000), wk =   0.0090703
        k(  217) = (   0.4761905  -0.2380952   0.0000000), wk =   0.0090703
        k(  218) = (   0.4761905  -0.1904762   0.0000000), wk =   0.0090703
        k(  219) = (   0.4761905  -0.1428571   0.0000000), wk =   0.0090703
        k(  220) = (   0.4761905  -0.0952381   0.0000000), wk =   0.0090703
        k(  221) = (   0.4761905  -0.0476190   0.0000000), wk =   0.0090703

     Initial potential from superposition of free atoms

     starting charge      77.7638, renormalised to      78.0000

     negative rho (up, down):  4.016E-04 0.000E+00
     Starting wfcs are random

     Self-consistent Calculation

     iteration #  1     ecut=    50.00 Ry     beta= 0.70
     Davidson diagonalization with overlap

     ethr =  1.00E-02,  avg # of iterations = 11.1

     Threshold (ethr) on eigenvalues was too large:
     Diagonalizing with lowered threshold

     Davidson diagonalization with overlap

[...]

     negative rho (up, down):  1.662E-05 0.000E+00

     total energy              =    -806.47369431 Ry
     estimated scf accuracy    <       0.09145888 Ry

[...]

     negative rho (up, down):  1.846E-08 0.000E+00

[...]

     total energy              =    -806.51557025 Ry
     estimated scf accuracy    <       0.00000448 Ry

     iteration # 12     ecut=    50.00 Ry     beta= 0.70
     Davidson diagonalization with overlap

     ethr =  6.41E-10,  avg # of iterations =  5.5

     End of self-consistent calculation

          k = 0.0000 0.0000 0.0000 ( 15117 PWs)   bands (ev):

   -34.9035 -34.9034 -34.9029 -34.9029 -34.8675 -34.8673 -34.8594 -34.8594
   -34.8496 -34.8495 -34.8019 -34.7992 -34.7818 -34.7620 -34.7594 -27.6960
   -27.6955 -27.6943 -27.6938 -27.6888 -27.6883 -27.6840 -27.6835 -27.6805
   -27.6800 -10.7828 -10.2387  -9.1702  -6.4481  -5.1378  -0.3971  -0.1774
    -0.0428   0.1180   0.2407   0.5594   0.5739   0.7712   1.0040

     occupation numbers
     1.0000   1.0000   1.0000   1.0000   1.0000   1.0000   1.0000   1.0000
     1.0000   1.0000   1.0000   1.0000   1.0000   1.0000   1.0000   1.0000
     1.0000   1.0000   1.0000   1.0000   1.0000   1.0000   1.0000   1.0000
     1.0000   1.0000   1.0000   1.0000   1.0000   1.0000   1.0000   1.0000
     1.0000   1.0000   1.0000   1.0000   1.0000   1.0000   1.0000

[...]

          k = 0.4762 0.2172 0.0000 ( 15036 PWs)   bands (ev):

   -34.9031 -34.9030 -34.9023 -34.9022 -34.8676 -34.8675 -34.8594 -34.8594
   -34.8492 -34.8491 -34.8014 -34.7994 -34.7819 -34.7614 -34.7592 -27.6949
   -27.6945 -27.6940 -27.6936 -27.6885 -27.6877 -27.6849 -27.6841 -27.6807
   -27.6798  -9.3858  -9.1934  -9.0152  -7.4814  -6.9328  -3.1003  -1.8607
    -1.6170  -1.3596  -0.7397  -0.4157   0.4749   0.7559   1.0463

     occupation numbers
     1.0000   1.0000   1.0000   1.0000   1.0000   1.0000   1.0000   1.0000
     1.0000   1.0000   1.0000   1.0000   1.0000   1.0000   1.0000   1.0000
     1.0000   1.0000   1.0000   1.0000   1.0000   1.0000   1.0000   1.0000
     1.0000   1.0000   1.0000   1.0000   1.0000   1.0000   1.0000   1.0000
     1.0000   1.0000   1.0000   1.0000   1.0000   1.0000   1.0000

     highest occupied level (ev):     1.5380

!    total energy              =    -806.51557061 Ry
     estimated scf accuracy    <       0.00000002 Ry

     The total energy is the sum of the following terms:
     one-electron contribution =   -3367.89760460 Ry
     hartree contribution      =    1678.34181793 Ry
     xc contribution           =     -87.11111739 Ry
     ewald contribution        =     970.15133345 Ry

     convergence has been achieved in  12 iterations

     Writing all to output data dir tmp/Sb2Te3-uatsx-c1-5.0.save/ :
     XML data file, charge density, pseudopotentials, collected wavefunctions

     General routines

     Parallel routines

   This run was terminated on:  16:41: 1  13Aug2025

   JOB DONE.