     Program PWSCF v.7.4.1 starts on 22Aug2025 at 13:14:54

     Waiting for input...
     Reading input from standard input

     Current dimensions of program PWSCF are:
     Max number of different atomic species (ntypx) = 10
     Max number of k-points (npk) =  40000
     Max angular momentum in pseudopotentials (lmaxx) =  4
Error reading attribute index: expected integer, found *
Error reading attribute index: expected integer, found *

     IMPORTANT: XC functional enforced from input :
     Exchange-correlation= PBE
                           (   1   4   3   4   0   0   0)
     Any further DFT definition will be discarded
     Please, verify this is what you really want

     Message from routine setup:
     no reason to have ecutrho>4*ecutwfc

     R & G space division:  proc/nbgrp/npool/nimage =      24
     Subspace diagonalization in iterative solution of the eigenvalue problem:
     a serial algorithm will be used

     Using Slab Decomposition

     bravais-lattice index     =            0
     lattice parameter (alat)  =       8.1456  a.u.
     unit-cell volume          =    2407.5243 (a.u.)^3
     number of atoms/cell      =            5
     number of atomic types    =            2
     number of electrons       =        78.00
     number of Kohn-Sham states=           78
     kinetic-energy cutoff     =      70.0000  Ry
     charge density cutoff     =     700.0000  Ry
     scf convergence threshold =      1.0E-07
     mixing beta               =       0.7000
     number of iterations used =            8  plain     mixing
     Exchange-correlation= PBE
                           (   1   4   3   4   0   0   0)
     Non magnetic calculation with spin-orbit

     celldm(1)=   8.145633  celldm(2)=   0.000000  celldm(3)=   0.000000
     celldm(4)=   0.000000  celldm(5)=   0.000000  celldm(6)=   0.000000

     crystal axes: (cart. coord. in units of alat)
               a(1) = (   1.000000   0.000000   0.000000 )
               a(2) = (  -0.500000   0.866351   0.000000 )
               a(3) = (   0.000000   0.000000   5.141647 )

     reciprocal axes: (cart. coord. in units 2 pi/alat)
               b(1) = (  1.000000  0.577133 -0.000000 )
               b(2) = (  0.000000  1.154267  0.000000 )
               b(3) = (  0.000000 -0.000000  0.194490 )

     PseudoPot. # 1 for Sb read from file:
     /zfs-home/202401017n1/pseudos/Sb_ONCV_PBE_FR-1.1.upf
     MD5 check sum: 7dc1726f2158e3c51e4807d42b9c5c65
     Pseudo is Norm-conserving, Zval = 15.0
     Generated using ONCVPSP code by D. R. Hamann
     Using radial grid of  602 points, 10 beta functions with:
                l(1) =   0
                l(2) =   0
                l(3) =   1
                l(4) =   1
                l(5) =   1
                l(6) =   1
                l(7) =   2
                l(8) =   2
                l(9) =   2
               l(10) =   2

     PseudoPot. # 2 for Te read from file:
     /zfs-home/202401017n1/pseudos/Te_ONCV_PBE_FR-1.1.upf
     MD5 check sum: c6e17480449037a9a9d16e6377b5c7c4
     Pseudo is Norm-conserving, Zval = 16.0
     Generated using ONCVPSP code by D. R. Hamann
     Using radial grid of  602 points, 10 beta functions with:
                l(1) =   0
                l(2) =   0
                l(3) =   1
                l(4) =   1
                l(5) =   1
                l(6) =   1
                l(7) =   2
                l(8) =   2
                l(9) =   2
               l(10) =   2

     atomic species   valence    mass     pseudopotential
     Sb               15.00   121.76000     Sb( 1.00)
     Te               16.00   127.60000     Te( 1.00)

     No symmetry found

                                    s                        frac. trans.

      isym =  1     identity

 cryst.   s( 1) = (     1          0          0      )
                  (     0          1          0      )
                  (     0          0          1      )

 cart.    s( 1) = (  1.0000000  0.0000000  0.0000000 )
                  (  0.0000000  1.0000000  0.0000000 )
                  (  0.0000000  0.0000000  1.0000000 )

   Cartesian axes

     site n.     atom                  positions (alat units)
         1        Sb     tau(   1) = (   0.5754431   0.4220521   3.0333851  )
         2        Te     tau(   2) = (   0.5747551   0.4223309   1.7144876  )
         3        Sb     tau(   3) = (   0.0752910   0.1326355   2.1082148  )
         4        Te     tau(   4) = (   0.0751205   0.1338578   3.4271228  )
         5        Te     tau(   5) = (   0.0748618   0.7114055   2.5708084  )

     Parameters for Dispersion (Grimme-D2) Correction:
       atom      VdW radius       C_6

        Sb         3.555       1333.532
        Te         3.575       1101.101

   Crystallographic axes

     site n.     atom                  positions (cryst. coord.)
         1        Sb     tau(   1) = (  0.8190235  0.4871607  0.5899637  )
         2        Te     tau(   2) = (  0.8184963  0.4874825  0.3334511  )
         3        Sb     tau(   3) = (  0.1518394  0.1530967  0.4100271  )
         4        Te     tau(   4) = (  0.1523743  0.1545076  0.6665418  )
         5        Te     tau(   5) = (  0.4854376  0.8211517  0.4999971  )

     number of k points=   221
                       cart. coord. in units 2pi/alat
        k(    1) = (   0.0000000   0.0000000   0.0000000), wk =   0.0022676
        k(    2) = (   0.0000000   0.0549651   0.0000000), wk =   0.0045351
        k(    3) = (   0.0000000   0.1099302   0.0000000), wk =   0.0045351
        k(    4) = (   0.0000000   0.1648952   0.0000000), wk =   0.0045351
        k(    5) = (   0.0000000   0.2198603   0.0000000), wk =   0.0045351
        k(    6) = (   0.0000000   0.2748254   0.0000000), wk =   0.0045351
        k(    7) = (   0.0000000   0.3297905   0.0000000), wk =   0.0045351
        k(    8) = (   0.0000000   0.3847556   0.0000000), wk =   0.0045351
        k(    9) = (   0.0000000   0.4397206   0.0000000), wk =   0.0045351
        k(   10) = (   0.0000000   0.4946857   0.0000000), wk =   0.0045351
        k(   11) = (   0.0000000   0.5496508   0.0000000), wk =   0.0045351
        k(   12) = (   0.0476190   0.0274825   0.0000000), wk =   0.0045351
        k(   13) = (   0.0476190   0.0824476   0.0000000), wk =   0.0045351
        k(   14) = (   0.0476190   0.1374127   0.0000000), wk =   0.0045351
        k(   15) = (   0.0476190   0.1923778   0.0000000), wk =   0.0045351
        k(   16) = (   0.0476190   0.2473429   0.0000000), wk =   0.0045351
        k(   17) = (   0.0476190   0.3023079   0.0000000), wk =   0.0045351
        k(   18) = (   0.0476190   0.3572730   0.0000000), wk =   0.0045351
        k(   19) = (   0.0476190   0.4122381   0.0000000), wk =   0.0045351
        k(   20) = (   0.0476190   0.4672032   0.0000000), wk =   0.0045351
        k(   21) = (   0.0476190   0.5221682   0.0000000), wk =   0.0045351
        k(   22) = (   0.0476190   0.5771333   0.0000000), wk =   0.0045351
        k(   23) = (   0.0952381   0.0549651   0.0000000), wk =   0.0045351
        k(   24) = (   0.0952381   0.1099302   0.0000000), wk =   0.0045351
        k(   25) = (   0.0952381   0.1648952   0.0000000), wk =   0.0045351
        k(   26) = (   0.0952381   0.2198603   0.0000000), wk =   0.0045351
        k(   27) = (   0.0952381   0.2748254   0.0000000), wk =   0.0045351
        k(   28) = (   0.0952381   0.3297905   0.0000000), wk =   0.0045351
        k(   29) = (   0.0952381   0.3847556   0.0000000), wk =   0.0045351
        k(   30) = (   0.0952381   0.4397206   0.0000000), wk =   0.0045351
        k(   31) = (   0.0952381   0.4946857   0.0000000), wk =   0.0045351
        k(   32) = (   0.0952381   0.5496508   0.0000000), wk =   0.0045351
        k(   33) = (   0.0952381  -0.0000000   0.0000000), wk =   0.0045351
        k(   34) = (   0.1428571   0.0824476   0.0000000), wk =   0.0045351
        k(   35) = (   0.1428571   0.1374127   0.0000000), wk =   0.0045351
        k(   36) = (   0.1428571   0.1923778   0.0000000), wk =   0.0045351
        k(   37) = (   0.1428571   0.2473429   0.0000000), wk =   0.0045351
        k(   38) = (   0.1428571   0.3023079   0.0000000), wk =   0.0045351
        k(   39) = (   0.1428571   0.3572730   0.0000000), wk =   0.0045351
        k(   40) = (   0.1428571   0.4122381   0.0000000), wk =   0.0045351
        k(   41) = (   0.1428571   0.4672032   0.0000000), wk =   0.0045351
        k(   42) = (   0.1428571   0.5221682   0.0000000), wk =   0.0045351
        k(   43) = (   0.1428571   0.5771333   0.0000000), wk =   0.0045351
        k(   44) = (   0.1428571  -0.0274825   0.0000000), wk =   0.0045351
        k(   45) = (   0.1904762   0.1099302   0.0000000), wk =   0.0045351
        k(   46) = (   0.1904762   0.1648952   0.0000000), wk =   0.0045351
        k(   47) = (   0.1904762   0.2198603   0.0000000), wk =   0.0045351
        k(   48) = (   0.1904762   0.2748254   0.0000000), wk =   0.0045351
        k(   49) = (   0.1904762   0.3297905   0.0000000), wk =   0.0045351
        k(   50) = (   0.1904762   0.3847556   0.0000000), wk =   0.0045351
        k(   51) = (   0.1904762   0.4397206   0.0000000), wk =   0.0045351
        k(   52) = (   0.1904762   0.4946857   0.0000000), wk =   0.0045351
        k(   53) = (   0.1904762   0.5496508   0.0000000), wk =   0.0045351
        k(   54) = (   0.1904762  -0.0549651   0.0000000), wk =   0.0045351
        k(   55) = (   0.1904762  -0.0000000   0.0000000), wk =   0.0045351
        k(   56) = (   0.2380952   0.1374127   0.0000000), wk =   0.0045351
        k(   57) = (   0.2380952   0.1923778   0.0000000), wk =   0.0045351
        k(   58) = (   0.2380952   0.2473429   0.0000000), wk =   0.0045351
        k(   59) = (   0.2380952   0.3023079   0.0000000), wk =   0.0045351
        k(   60) = (   0.2380952   0.3572730   0.0000000), wk =   0.0045351
[...]
        k(  207) = (  -0.4285714   0.5221682   0.0000000), wk =   0.0045351
        k(  208) = (  -0.4285714  -0.1923778   0.0000000), wk =   0.0045351
        k(  209) = (  -0.4285714  -0.1374127   0.0000000), wk =   0.0045351
        k(  210) = (  -0.4285714  -0.0824476   0.0000000), wk =   0.0045351
        k(  211) = (  -0.4285714  -0.0274825   0.0000000), wk =   0.0045351
        k(  212) = (  -0.4761905   0.2748254   0.0000000), wk =   0.0045351
        k(  213) = (  -0.4761905   0.3297905   0.0000000), wk =   0.0045351
        k(  214) = (  -0.4761905   0.3847556   0.0000000), wk =   0.0045351
        k(  215) = (  -0.4761905   0.4397206   0.0000000), wk =   0.0045351
        k(  216) = (  -0.4761905   0.4946857   0.0000000), wk =   0.0045351
        k(  217) = (  -0.4761905   0.5496508   0.0000000), wk =   0.0045351
        k(  218) = (  -0.4761905  -0.2198603   0.0000000), wk =   0.0045351
        k(  219) = (  -0.4761905  -0.1648952   0.0000000), wk =   0.0045351
        k(  220) = (  -0.4761905  -0.1099302   0.0000000), wk =   0.0045351
        k(  221) = (  -0.4761905  -0.0549651   0.0000000), wk =   0.0045351

                       cryst. coord.
        k(    1) = (   0.0000000   0.0000000   0.0000000), wk =   0.0022676
        k(    2) = (   0.0000000   0.0476190   0.0000000), wk =   0.0045351
        k(    3) = (   0.0000000   0.0952381   0.0000000), wk =   0.0045351
        k(    4) = (   0.0000000   0.1428571   0.0000000), wk =   0.0045351
        k(    5) = (   0.0000000   0.1904762   0.0000000), wk =   0.0045351
        k(    6) = (   0.0000000   0.2380952   0.0000000), wk =   0.0045351
        k(    7) = (   0.0000000   0.2857143   0.0000000), wk =   0.0045351
        k(    8) = (   0.0000000   0.3333333   0.0000000), wk =   0.0045351
        k(    9) = (   0.0000000   0.3809524   0.0000000), wk =   0.0045351
        k(   10) = (   0.0000000   0.4285714   0.0000000), wk =   0.0045351
        k(   11) = (   0.0000000   0.4761905   0.0000000), wk =   0.0045351
        k(   12) = (   0.0476190   0.0000000   0.0000000), wk =   0.0045351
        k(   13) = (   0.0476190   0.0476190   0.0000000), wk =   0.0045351
        k(   14) = (   0.0476190   0.0952381   0.0000000), wk =   0.0045351
        k(   15) = (   0.0476190   0.1428571   0.0000000), wk =   0.0045351
        k(   16) = (   0.0476190   0.1904762   0.0000000), wk =   0.0045351
        k(   17) = (   0.0476190   0.2380952   0.0000000), wk =   0.0045351
        k(   18) = (   0.0476190   0.2857143   0.0000000), wk =   0.0045351
        k(   19) = (   0.0476190   0.3333333   0.0000000), wk =   0.0045351
        k(   20) = (   0.0476190   0.3809524   0.0000000), wk =   0.0045351
        k(   21) = (   0.0476190   0.4285714   0.0000000), wk =   0.0045351
        k(   22) = (   0.0476190   0.4761905   0.0000000), wk =   0.0045351
        k(   23) = (   0.0952381   0.0000000   0.0000000), wk =   0.0045351
        k(   24) = (   0.0952381   0.0476190   0.0000000), wk =   0.0045351
        k(   25) = (   0.0952381   0.0952381   0.0000000), wk =   0.0045351
        k(   26) = (   0.0952381   0.1428571   0.0000000), wk =   0.0045351
        k(   27) = (   0.0952381   0.1904762   0.0000000), wk =   0.0045351
        k(   28) = (   0.0952381   0.2380952   0.0000000), wk =   0.0045351
        k(   29) = (   0.0952381   0.2857143   0.0000000), wk =   0.0045351
        k(   30) = (   0.0952381   0.3333333   0.0000000), wk =   0.0045351
        k(   31) = (   0.0952381   0.3809524   0.0000000), wk =   0.0045351
        k(   32) = (   0.0952381   0.4285714   0.0000000), wk =   0.0045351
        k(   33) = (   0.0952381  -0.0476190   0.0000000), wk =   0.0045351
        k(   34) = (   0.1428571   0.0000000   0.0000000), wk =   0.0045351
        k(   35) = (   0.1428571   0.0476190   0.0000000), wk =   0.0045351
        k(   36) = (   0.1428571   0.0952381   0.0000000), wk =   0.0045351
        k(   37) = (   0.1428571   0.1428571   0.0000000), wk =   0.0045351
        k(   38) = (   0.1428571   0.1904762   0.0000000), wk =   0.0045351
        k(   39) = (   0.1428571   0.2380952   0.0000000), wk =   0.0045351
        k(   40) = (   0.1428571   0.2857143   0.0000000), wk =   0.0045351
        k(   41) = (   0.1428571   0.3333333   0.0000000), wk =   0.0045351
        k(   42) = (   0.1428571   0.3809524   0.0000000), wk =   0.0045351
        k(   43) = (   0.1428571   0.4285714   0.0000000), wk =   0.0045351
        k(   44) = (   0.1428571  -0.0952381   0.0000000), wk =   0.0045351
        k(   45) = (   0.1904762   0.0000000   0.0000000), wk =   0.0045351
        k(   46) = (   0.1904762   0.0476190   0.0000000), wk =   0.0045351
        k(   47) = (   0.1904762   0.0952381   0.0000000), wk =   0.0045351
        k(   48) = (   0.1904762   0.1428571   0.0000000), wk =   0.0045351
        k(   49) = (   0.1904762   0.1904762   0.0000000), wk =   0.0045351
        k(   50) = (   0.1904762   0.2380952   0.0000000), wk =   0.0045351
        k(   51) = (   0.1904762   0.2857143   0.0000000), wk =   0.0045351
        k(   52) = (   0.1904762   0.3333333   0.0000000), wk =   0.0045351
        k(   53) = (   0.1904762   0.3809524   0.0000000), wk =   0.0045351
        k(   54) = (   0.1904762  -0.1428571   0.0000000), wk =   0.0045351
        k(   55) = (   0.1904762  -0.0952381   0.0000000), wk =   0.0045351
        k(   56) = (   0.2380952   0.0000000   0.0000000), wk =   0.0045351
        k(   57) = (   0.2380952   0.0476190   0.0000000), wk =   0.0045351
        k(   58) = (   0.2380952   0.0952381   0.0000000), wk =   0.0045351
        k(   59) = (   0.2380952   0.1428571   0.0000000), wk =   0.0045351
        k(   60) = (   0.2380952   0.1904762   0.0000000), wk =   0.0045351
[...]
        k(  207) = (  -0.4285714   0.6666667   0.0000000), wk =   0.0045351
        k(  208) = (  -0.4285714   0.0476190   0.0000000), wk =   0.0045351
        k(  209) = (  -0.4285714   0.0952381   0.0000000), wk =   0.0045351
        k(  210) = (  -0.4285714   0.1428571   0.0000000), wk =   0.0045351
        k(  211) = (  -0.4285714   0.1904762   0.0000000), wk =   0.0045351
        k(  212) = (  -0.4761905   0.4761905   0.0000000), wk =   0.0045351
        k(  213) = (  -0.4761905   0.5238095   0.0000000), wk =   0.0045351
        k(  214) = (  -0.4761905   0.5714286   0.0000000), wk =   0.0045351
        k(  215) = (  -0.4761905   0.6190476   0.0000000), wk =   0.0045351
        k(  216) = (  -0.4761905   0.6666667   0.0000000), wk =   0.0045351
        k(  217) = (  -0.4761905   0.7142857   0.0000000), wk =   0.0045351
        k(  218) = (  -0.4761905   0.0476190   0.0000000), wk =   0.0045351
        k(  219) = (  -0.4761905   0.0952381   0.0000000), wk =   0.0045351
        k(  220) = (  -0.4761905   0.1428571   0.0000000), wk =   0.0045351
        k(  221) = (  -0.4761905   0.1904762   0.0000000), wk =   0.0045351

     Initial potential from superposition of free atoms

     starting charge      77.7613, renormalised to      78.0000

     negative rho (up, down):  2.636E-04 0.000E+00
     Starting wfcs are random

     Self-consistent Calculation

     iteration #  1     ecut=    70.00 Ry     beta= 0.70
     Davidson diagonalization with overlap

     ethr =  1.00E-02,  avg # of iterations = 12.5

     Threshold (ethr) on eigenvalues was too large:
     Diagonalizing with lowered threshold

     Davidson diagonalization with overlap

[...]

     negative rho (up, down):  3.373E-06 0.000E+00

     total energy              =    -806.64504696 Ry
     estimated scf accuracy    <       0.07538371 Ry

[...]

     negative rho (up, down):  1.816E-08 0.000E+00

[...]

     total energy              =    -806.67751782 Ry
     estimated scf accuracy    <       0.00000039 Ry

     iteration # 14     ecut=    70.00 Ry     beta= 0.70
     Davidson diagonalization with overlap

     ethr =  1.40E-10,  avg # of iterations =  5.4

     End of self-consistent calculation

          k = 0.0000 0.0000 0.0000 ( 23771 PWs)   bands (ev):

   -35.3653 -35.3653 -35.3653 -35.3653 -35.3405 -35.3405 -35.3404 -35.3404
   -35.2615 -35.2615 -35.2254 -35.2254 -33.9054 -33.9054 -33.9053 -33.9053
   -33.8843 -33.8843 -33.8842 -33.8842 -33.8730 -33.8730 -33.8730 -33.8730
   -33.7990 -33.7990 -33.7836 -33.7836 -33.7521 -33.7521 -27.9809 -27.9809
   -27.9806 -27.9806 -27.9719 -27.9719 -27.9718 -27.9718 -26.7419 -26.7419
   -26.7417 -26.7417 -26.7317 -26.7317 -26.7316 -26.7316 -26.7306 -26.7306
   -26.7304 -26.7304 -10.5777 -10.5777 -10.0405 -10.0405  -8.9463  -8.9463
    -6.1646  -6.1646  -4.7074  -4.7074  -0.3927  -0.3927   0.1613   0.1613
     0.3881   0.3881   0.6665   0.6665   0.7651   0.7651   0.8783   0.8783
     1.0804   1.0804   1.4773   1.4773   1.6311   1.6311

     occupation numbers
     1.0000   1.0000   1.0000   1.0000   1.0000   1.0000   1.0000   1.0000
     1.0000   1.0000   1.0000   1.0000   1.0000   1.0000   1.0000   1.0000
     1.0000   1.0000   1.0000   1.0000   1.0000   1.0000   1.0000   1.0000
     1.0000   1.0000   1.0000   1.0000   1.0000   1.0000   1.0000   1.0000
     1.0000   1.0000   1.0000   1.0000   1.0000   1.0000   1.0000   1.0000
     1.0000   1.0000   1.0000   1.0000   1.0000   1.0000   1.0000   1.0000
     1.0000   1.0000   1.0000   1.0000   1.0000   1.0000   1.0000   1.0000
     1.0000   1.0000   1.0000   1.0000   1.0000   1.0000   1.0000   1.0000
     1.0000   1.0000   1.0000   1.0000   1.0000   1.0000   1.0000   1.0000
     1.0000   1.0000   1.0000   1.0000   1.0000   1.0000

[...]

          k = 0.4762-0.0000 0.0000 ( 23841 PWs)   bands (ev):

[...]

          k =-0.0476 0.0275 0.0000 ( 23755 PWs)   bands (ev):

[...]

          k =-0.4762-0.0550 0.0000 ( 23825 PWs)   bands (ev):

   -35.3648 -35.3648 -35.3648 -35.3647 -35.3403 -35.3403 -35.3403 -35.3403
   -35.2615 -35.2615 -35.2249 -35.2249 -33.9045 -33.9045 -33.9045 -33.9044
   -33.8844 -33.8843 -33.8843 -33.8842 -33.8726 -33.8726 -33.8726 -33.8726
   -33.7987 -33.7987 -33.7837 -33.7837 -33.7512 -33.7512 -27.9801 -27.9800
   -27.9796 -27.9796 -27.9722 -27.9722 -27.9720 -27.9719 -26.7402 -26.7402
   -26.7398 -26.7397 -26.7331 -26.7330 -26.7326 -26.7325 -26.7300 -26.7300
   -26.7297 -26.7297  -9.2025  -9.2024  -8.8765  -8.8765  -8.4579  -8.4577
    -6.8595  -6.8594  -6.6077  -6.6077  -2.5642  -2.5639  -2.1096  -2.1091
    -1.4563  -1.4508  -1.3486  -1.3424  -0.8989  -0.8970  -0.2977  -0.2967
     0.6703   0.6723   1.1595   1.1605   1.5664   1.5675

     occupation numbers
     1.0000   1.0000   1.0000   1.0000   1.0000   1.0000   1.0000   1.0000
     1.0000   1.0000   1.0000   1.0000   1.0000   1.0000   1.0000   1.0000
     1.0000   1.0000   1.0000   1.0000   1.0000   1.0000   1.0000   1.0000
     1.0000   1.0000   1.0000   1.0000   1.0000   1.0000   1.0000   1.0000
     1.0000   1.0000   1.0000   1.0000   1.0000   1.0000   1.0000   1.0000
     1.0000   1.0000   1.0000   1.0000   1.0000   1.0000   1.0000   1.0000
     1.0000   1.0000   1.0000   1.0000   1.0000   1.0000   1.0000   1.0000
     1.0000   1.0000   1.0000   1.0000   1.0000   1.0000   1.0000   1.0000
     1.0000   1.0000   1.0000   1.0000   1.0000   1.0000   1.0000   1.0000
     1.0000   1.0000   1.0000   1.0000   1.0000   1.0000

     highest occupied level (ev):     1.9560

!    total energy              =    -806.67751783 Ry
     estimated scf accuracy    <          7.7E-09 Ry

     The total energy is the sum of the following terms:
     one-electron contribution =   -3425.11246362 Ry
     hartree contribution      =    1708.11575042 Ry
     xc contribution           =     -87.20950776 Ry
     ewald contribution        =     997.62966022 Ry
     Dispersion Correction     =      -0.10095710 Ry

     convergence has been achieved in  14 iterations

     Writing all to output data dir tmp/Sb2Te3-uatsx-c5-soc-0.0.save/ :
     XML data file, charge density, pseudopotentials, collected wavefunctions

     General routines

     Parallel routines

   This run was terminated on:  13:48: 1  22Aug2025

   JOB DONE.