     Program PWSCF v.7.4.1 starts on 14Aug2025 at 17:20:23

     Waiting for input...
     Reading input from standard input

     Current dimensions of program PWSCF are:
     Max number of different atomic species (ntypx) = 10
     Max number of k-points (npk) =  40000
     Max angular momentum in pseudopotentials (lmaxx) =  4
Error reading attribute index: expected integer, found *
Error reading attribute index: expected integer, found *

     IMPORTANT: XC functional enforced from input :
     Exchange-correlation= PBE
                           (   1   4   3   4   0   0   0)
     Any further DFT definition will be discarded
     Please, verify this is what you really want

     Message from routine setup:
     no reason to have ecutrho>4*ecutwfc

     R & G space division:  proc/nbgrp/npool/nimage =      24
     Subspace diagonalization in iterative solution of the eigenvalue problem:
     a serial algorithm will be used

     Using Slab Decomposition

     bravais-lattice index     =            0
     lattice parameter (alat)  =       8.4715  a.u.
     unit-cell volume          =    2502.8602 (a.u.)^3
     number of atoms/cell      =            5
     number of atomic types    =            2
     number of electrons       =        78.00
     number of Kohn-Sham states=           78
     kinetic-energy cutoff     =      50.0000  Ry
     charge density cutoff     =     500.0000  Ry
     scf convergence threshold =      1.0E-07
     mixing beta               =       0.7000
     number of iterations used =            8  plain     mixing
     Exchange-correlation= PBE
                           (   1   4   3   4   0   0   0)
     Non magnetic calculation with spin-orbit

     celldm(1)=   8.471459  celldm(2)=   0.000000  celldm(3)=   0.000000
     celldm(4)=   0.000000  celldm(5)=   0.000000  celldm(6)=   0.000000

     crystal axes: (cart. coord. in units of alat)
               a(1) = (   1.000000   0.000000   0.000000 )
               a(2) = (  -0.480769   0.832709   0.000000 )
               a(3) = (   0.000000   0.000000   4.943891 )

     reciprocal axes: (cart. coord. in units 2 pi/alat)
               b(1) = (  1.000000  0.577356 -0.000000 )
               b(2) = (  0.000000  1.200900  0.000000 )
               b(3) = (  0.000000 -0.000000  0.202270 )

     PseudoPot. # 1 for Sb read from file:
     /zfs-home/202401017n1/pseudos/Sb_ONCV_PBE_FR-1.1.upf
     MD5 check sum: 7dc1726f2158e3c51e4807d42b9c5c65
     Pseudo is Norm-conserving, Zval = 15.0
     Generated using ONCVPSP code by D. R. Hamann
     Using radial grid of  602 points, 10 beta functions with:
                l(1) =   0
                l(2) =   0
                l(3) =   1
                l(4) =   1
                l(5) =   1
                l(6) =   1
                l(7) =   2
                l(8) =   2
                l(9) =   2
               l(10) =   2

     PseudoPot. # 2 for Te read from file:
     /zfs-home/202401017n1/pseudos/Te_ONCV_PBE_FR-1.1.upf
     MD5 check sum: c6e17480449037a9a9d16e6377b5c7c4
     Pseudo is Norm-conserving, Zval = 16.0
     Generated using ONCVPSP code by D. R. Hamann
     Using radial grid of  602 points, 10 beta functions with:
                l(1) =   0
                l(2) =   0
                l(3) =   1
                l(4) =   1
                l(5) =   1
                l(6) =   1
                l(7) =   2
                l(8) =   2
                l(9) =   2
               l(10) =   2

     atomic species   valence    mass     pseudopotential
     Sb               15.00   121.76000     Sb( 1.00)
     Te               16.00   127.60000     Te( 1.00)

     No symmetry found

                                    s                        frac. trans.

      isym =  1     identity

 cryst.   s( 1) = (     1          0          0      )
                  (     0          1          0      )
                  (     0          0          1      )

 cart.    s( 1) = (  1.0000000  0.0000000  0.0000000 )
                  (  0.0000000  1.0000000  0.0000000 )
                  (  0.0000000  0.0000000  1.0000000 )

   Cartesian axes

     site n.     atom                  positions (alat units)
         1        Sb     tau(   1) = (   0.5904646   0.4157527   2.9115514  )
         2        Te     tau(   2) = (   0.5755298   0.3904446   1.6605492  )
         3        Sb     tau(   3) = (   0.0721083   0.1184920   2.0322939  )
         4        Te     tau(   4) = (   0.0869606   0.1439524   3.2833161  )
         5        Te     tau(   5) = (   0.0908738   0.6835524   2.4719228  )

   Crystallographic axes

     site n.     atom                  positions (cryst. coord.)
         1        Sb     tau(   1) = (  0.8305018  0.4992775  0.5889190  )
         2        Te     tau(   2) = (  0.8009552  0.4688850  0.3358790  )
         3        Sb     tau(   3) = (  0.1405204  0.1422971  0.4110717  )
         4        Te     tau(   4) = (  0.1700723  0.1728725  0.6641158  )
         5        Te     tau(   5) = (  0.4855268  0.8208782  0.4999954  )

     number of k points=   221
                       cart. coord. in units 2pi/alat
        k(    1) = (   0.0000000   0.0000000   0.0000000), wk =   0.0022676
        k(    2) = (   0.0000000   0.0571857   0.0000000), wk =   0.0045351
        k(    3) = (   0.0000000   0.1143714   0.0000000), wk =   0.0045351
        k(    4) = (   0.0000000   0.1715572   0.0000000), wk =   0.0045351
        k(    5) = (   0.0000000   0.2287429   0.0000000), wk =   0.0045351
        k(    6) = (   0.0000000   0.2859286   0.0000000), wk =   0.0045351
        k(    7) = (   0.0000000   0.3431143   0.0000000), wk =   0.0045351
        k(    8) = (   0.0000000   0.4003001   0.0000000), wk =   0.0045351
        k(    9) = (   0.0000000   0.4574858   0.0000000), wk =   0.0045351
        k(   10) = (   0.0000000   0.5146715   0.0000000), wk =   0.0045351
        k(   11) = (   0.0000000   0.5718572   0.0000000), wk =   0.0045351
        k(   12) = (   0.0476190   0.0274931   0.0000000), wk =   0.0045351
        k(   13) = (   0.0476190   0.0846789   0.0000000), wk =   0.0045351
        k(   14) = (   0.0476190   0.1418646   0.0000000), wk =   0.0045351
        k(   15) = (   0.0476190   0.1990503   0.0000000), wk =   0.0045351
        k(   16) = (   0.0476190   0.2562360   0.0000000), wk =   0.0045351
        k(   17) = (   0.0476190   0.3134217   0.0000000), wk =   0.0045351
        k(   18) = (   0.0476190   0.3706075   0.0000000), wk =   0.0045351
        k(   19) = (   0.0476190   0.4277932   0.0000000), wk =   0.0045351
        k(   20) = (   0.0476190   0.4849789   0.0000000), wk =   0.0045351
        k(   21) = (   0.0476190   0.5421646   0.0000000), wk =   0.0045351
        k(   22) = (   0.0476190   0.5993504   0.0000000), wk =   0.0045351
        k(   23) = (   0.0476190  -0.5443641   0.0000000), wk =   0.0045351
        k(   24) = (   0.0476190  -0.4871784   0.0000000), wk =   0.0045351
        k(   25) = (   0.0476190  -0.4299926   0.0000000), wk =   0.0045351
        k(   26) = (   0.0476190  -0.3728069   0.0000000), wk =   0.0045351
        k(   27) = (   0.0476190  -0.3156212   0.0000000), wk =   0.0045351
        k(   28) = (   0.0476190  -0.2584355   0.0000000), wk =   0.0045351
        k(   29) = (   0.0476190  -0.2012498   0.0000000), wk =   0.0045351
        k(   30) = (   0.0476190  -0.1440640   0.0000000), wk =   0.0045351
        k(   31) = (   0.0476190  -0.0868783   0.0000000), wk =   0.0045351
        k(   32) = (   0.0476190  -0.0296926   0.0000000), wk =   0.0045351
        k(   33) = (   0.0952381   0.0549863   0.0000000), wk =   0.0045351
        k(   34) = (   0.0952381   0.1121720   0.0000000), wk =   0.0045351
        k(   35) = (   0.0952381   0.1693577   0.0000000), wk =   0.0045351
        k(   36) = (   0.0952381   0.2265434   0.0000000), wk =   0.0045351
        k(   37) = (   0.0952381   0.2837292   0.0000000), wk =   0.0045351
        k(   38) = (   0.0952381   0.3409149   0.0000000), wk =   0.0045351
        k(   39) = (   0.0952381   0.3981006   0.0000000), wk =   0.0045351
        k(   40) = (   0.0952381   0.4552863   0.0000000), wk =   0.0045351
        k(   41) = (   0.0952381   0.5124721   0.0000000), wk =   0.0045351
        k(   42) = (   0.0952381   0.5696578   0.0000000), wk =   0.0045351
        k(   43) = (   0.0952381   0.6268435   0.0000000), wk =   0.0045351
        k(   44) = (   0.0952381  -0.5168710   0.0000000), wk =   0.0045351
        k(   45) = (   0.0952381  -0.4596852   0.0000000), wk =   0.0045351
        k(   46) = (   0.0952381  -0.4024995   0.0000000), wk =   0.0045351
        k(   47) = (   0.0952381  -0.3453138   0.0000000), wk =   0.0045351
        k(   48) = (   0.0952381  -0.2881281   0.0000000), wk =   0.0045351
        k(   49) = (   0.0952381  -0.2309423   0.0000000), wk =   0.0045351
        k(   50) = (   0.0952381  -0.1737566   0.0000000), wk =   0.0045351
        k(   51) = (   0.0952381  -0.1165709   0.0000000), wk =   0.0045351
        k(   52) = (   0.0952381  -0.0593852   0.0000000), wk =   0.0045351
        k(   53) = (   0.0952381  -0.0021995   0.0000000), wk =   0.0045351
        k(   54) = (   0.1428571   0.0824794   0.0000000), wk =   0.0045351
        k(   55) = (   0.1428571   0.1396651   0.0000000), wk =   0.0045351
        k(   56) = (   0.1428571   0.1968509   0.0000000), wk =   0.0045351
        k(   57) = (   0.1428571   0.2540366   0.0000000), wk =   0.0045351
        k(   58) = (   0.1428571   0.3112223   0.0000000), wk =   0.0045351
        k(   59) = (   0.1428571   0.3684080   0.0000000), wk =   0.0045351
        k(   60) = (   0.1428571   0.4255937   0.0000000), wk =   0.0045351
[...]
        k(  207) = (   0.4761905   0.6180457   0.0000000), wk =   0.0045351
        k(  208) = (   0.4761905   0.6752314   0.0000000), wk =   0.0045351
        k(  209) = (   0.4761905   0.7324171   0.0000000), wk =   0.0045351
        k(  210) = (   0.4761905   0.7896029   0.0000000), wk =   0.0045351
        k(  211) = (   0.4761905   0.8467886   0.0000000), wk =   0.0045351
        k(  212) = (   0.4761905  -0.2969259   0.0000000), wk =   0.0045351
        k(  213) = (   0.4761905  -0.2397401   0.0000000), wk =   0.0045351
        k(  214) = (   0.4761905  -0.1825544   0.0000000), wk =   0.0045351
        k(  215) = (   0.4761905  -0.1253687   0.0000000), wk =   0.0045351
        k(  216) = (   0.4761905  -0.0681830   0.0000000), wk =   0.0045351
        k(  217) = (   0.4761905  -0.0109973   0.0000000), wk =   0.0045351
        k(  218) = (   0.4761905   0.0461885   0.0000000), wk =   0.0045351
        k(  219) = (   0.4761905   0.1033742   0.0000000), wk =   0.0045351
        k(  220) = (   0.4761905   0.1605599   0.0000000), wk =   0.0045351
        k(  221) = (   0.4761905   0.2177456   0.0000000), wk =   0.0045351

                       cryst. coord.
        k(    1) = (   0.0000000   0.0000000   0.0000000), wk =   0.0022676
        k(    2) = (   0.0000000   0.0476190   0.0000000), wk =   0.0045351
        k(    3) = (   0.0000000   0.0952381   0.0000000), wk =   0.0045351
        k(    4) = (   0.0000000   0.1428571   0.0000000), wk =   0.0045351
        k(    5) = (   0.0000000   0.1904762   0.0000000), wk =   0.0045351
        k(    6) = (   0.0000000   0.2380952   0.0000000), wk =   0.0045351
        k(    7) = (   0.0000000   0.2857143   0.0000000), wk =   0.0045351
        k(    8) = (   0.0000000   0.3333333   0.0000000), wk =   0.0045351
        k(    9) = (   0.0000000   0.3809524   0.0000000), wk =   0.0045351
        k(   10) = (   0.0000000   0.4285714   0.0000000), wk =   0.0045351
        k(   11) = (   0.0000000   0.4761905   0.0000000), wk =   0.0045351
        k(   12) = (   0.0476190   0.0000000   0.0000000), wk =   0.0045351
        k(   13) = (   0.0476190   0.0476190   0.0000000), wk =   0.0045351
        k(   14) = (   0.0476190   0.0952381   0.0000000), wk =   0.0045351
        k(   15) = (   0.0476190   0.1428571   0.0000000), wk =   0.0045351
        k(   16) = (   0.0476190   0.1904762   0.0000000), wk =   0.0045351
        k(   17) = (   0.0476190   0.2380952   0.0000000), wk =   0.0045351
        k(   18) = (   0.0476190   0.2857143   0.0000000), wk =   0.0045351
        k(   19) = (   0.0476190   0.3333333   0.0000000), wk =   0.0045351
        k(   20) = (   0.0476190   0.3809524   0.0000000), wk =   0.0045351
        k(   21) = (   0.0476190   0.4285714   0.0000000), wk =   0.0045351
        k(   22) = (   0.0476190   0.4761905   0.0000000), wk =   0.0045351
        k(   23) = (   0.0476190  -0.4761905   0.0000000), wk =   0.0045351
        k(   24) = (   0.0476190  -0.4285714   0.0000000), wk =   0.0045351
        k(   25) = (   0.0476190  -0.3809524   0.0000000), wk =   0.0045351
        k(   26) = (   0.0476190  -0.3333333   0.0000000), wk =   0.0045351
        k(   27) = (   0.0476190  -0.2857143   0.0000000), wk =   0.0045351
        k(   28) = (   0.0476190  -0.2380952   0.0000000), wk =   0.0045351
        k(   29) = (   0.0476190  -0.1904762   0.0000000), wk =   0.0045351
        k(   30) = (   0.0476190  -0.1428571   0.0000000), wk =   0.0045351
        k(   31) = (   0.0476190  -0.0952381   0.0000000), wk =   0.0045351
        k(   32) = (   0.0476190  -0.0476190   0.0000000), wk =   0.0045351
        k(   33) = (   0.0952381   0.0000000   0.0000000), wk =   0.0045351
        k(   34) = (   0.0952381   0.0476190   0.0000000), wk =   0.0045351
        k(   35) = (   0.0952381   0.0952381   0.0000000), wk =   0.0045351
        k(   36) = (   0.0952381   0.1428571   0.0000000), wk =   0.0045351
        k(   37) = (   0.0952381   0.1904762   0.0000000), wk =   0.0045351
        k(   38) = (   0.0952381   0.2380952   0.0000000), wk =   0.0045351
        k(   39) = (   0.0952381   0.2857143   0.0000000), wk =   0.0045351
        k(   40) = (   0.0952381   0.3333333   0.0000000), wk =   0.0045351
        k(   41) = (   0.0952381   0.3809524   0.0000000), wk =   0.0045351
        k(   42) = (   0.0952381   0.4285714   0.0000000), wk =   0.0045351
        k(   43) = (   0.0952381   0.4761905   0.0000000), wk =   0.0045351
        k(   44) = (   0.0952381  -0.4761905   0.0000000), wk =   0.0045351
        k(   45) = (   0.0952381  -0.4285714   0.0000000), wk =   0.0045351
        k(   46) = (   0.0952381  -0.3809524   0.0000000), wk =   0.0045351
        k(   47) = (   0.0952381  -0.3333333   0.0000000), wk =   0.0045351
        k(   48) = (   0.0952381  -0.2857143   0.0000000), wk =   0.0045351
        k(   49) = (   0.0952381  -0.2380952   0.0000000), wk =   0.0045351
        k(   50) = (   0.0952381  -0.1904762   0.0000000), wk =   0.0045351
        k(   51) = (   0.0952381  -0.1428571   0.0000000), wk =   0.0045351
        k(   52) = (   0.0952381  -0.0952381   0.0000000), wk =   0.0045351
        k(   53) = (   0.0952381  -0.0476190   0.0000000), wk =   0.0045351
        k(   54) = (   0.1428571   0.0000000   0.0000000), wk =   0.0045351
        k(   55) = (   0.1428571   0.0476190   0.0000000), wk =   0.0045351
        k(   56) = (   0.1428571   0.0952381   0.0000000), wk =   0.0045351
        k(   57) = (   0.1428571   0.1428571   0.0000000), wk =   0.0045351
        k(   58) = (   0.1428571   0.1904762   0.0000000), wk =   0.0045351
        k(   59) = (   0.1428571   0.2380952   0.0000000), wk =   0.0045351
        k(   60) = (   0.1428571   0.2857143   0.0000000), wk =   0.0045351
[...]
        k(  207) = (   0.4761905   0.2857143   0.0000000), wk =   0.0045351
        k(  208) = (   0.4761905   0.3333333   0.0000000), wk =   0.0045351
        k(  209) = (   0.4761905   0.3809524   0.0000000), wk =   0.0045351
        k(  210) = (   0.4761905   0.4285714   0.0000000), wk =   0.0045351
        k(  211) = (   0.4761905   0.4761905   0.0000000), wk =   0.0045351
        k(  212) = (   0.4761905  -0.4761905   0.0000000), wk =   0.0045351
        k(  213) = (   0.4761905  -0.4285714   0.0000000), wk =   0.0045351
        k(  214) = (   0.4761905  -0.3809524   0.0000000), wk =   0.0045351
        k(  215) = (   0.4761905  -0.3333333   0.0000000), wk =   0.0045351
        k(  216) = (   0.4761905  -0.2857143   0.0000000), wk =   0.0045351
        k(  217) = (   0.4761905  -0.2380952   0.0000000), wk =   0.0045351
        k(  218) = (   0.4761905  -0.1904762   0.0000000), wk =   0.0045351
        k(  219) = (   0.4761905  -0.1428571   0.0000000), wk =   0.0045351
        k(  220) = (   0.4761905  -0.0952381   0.0000000), wk =   0.0045351
        k(  221) = (   0.4761905  -0.0476190   0.0000000), wk =   0.0045351

     Initial potential from superposition of free atoms

     starting charge      77.7613, renormalised to      78.0000

     negative rho (up, down):  3.995E-04 0.000E+00
     Starting wfcs are random

     Self-consistent Calculation

     iteration #  1     ecut=    50.00 Ry     beta= 0.70
     Davidson diagonalization with overlap

     ethr =  1.00E-02,  avg # of iterations = 12.5

     Threshold (ethr) on eigenvalues was too large:
     Diagonalizing with lowered threshold

     Davidson diagonalization with overlap

[...]

     negative rho (up, down):  1.698E-05 0.000E+00

     total energy              =    -806.53349955 Ry
     estimated scf accuracy    <       0.08348489 Ry

[...]

     negative rho (up, down):  1.407E-08 0.000E+00

[...]

     total energy              =    -806.57069890 Ry
     estimated scf accuracy    <       0.00000012 Ry

     iteration # 14     ecut=    50.00 Ry     beta= 0.70
     Davidson diagonalization with overlap

     ethr =  1.57E-10,  avg # of iterations =  2.3

     End of self-consistent calculation

          k = 0.0000 0.0000 0.0000 ( 14963 PWs)   bands (ev):

   -35.6368 -35.6368 -35.6368 -35.6368 -35.6031 -35.6031 -35.6031 -35.6031
   -35.5340 -35.5340 -35.5031 -35.5031 -34.1785 -34.1785 -34.1784 -34.1784
   -34.1501 -34.1501 -34.1501 -34.1501 -34.1346 -34.1346 -34.1346 -34.1346
   -34.0725 -34.0725 -34.0552 -34.0552 -34.0319 -34.0319 -28.2868 -28.2868
   -28.2866 -28.2866 -28.2783 -28.2783 -28.2782 -28.2782 -27.0473 -27.0473
   -27.0471 -27.0471 -27.0389 -27.0389 -27.0387 -27.0387 -27.0355 -27.0355
   -27.0355 -27.0355 -10.7097 -10.7097 -10.1704 -10.1704  -9.0987  -9.0987
    -6.3627  -6.3627  -5.0187  -5.0187  -0.6472  -0.6472  -0.2276  -0.2276
     0.0683   0.0683   0.3170   0.3170   0.3951   0.3951   0.4838   0.4838
     0.7820   0.7820   1.0406   1.0406   1.2394   1.2394

     occupation numbers
     1.0000   1.0000   1.0000   1.0000   1.0000   1.0000   1.0000   1.0000
     1.0000   1.0000   1.0000   1.0000   1.0000   1.0000   1.0000   1.0000
     1.0000   1.0000   1.0000   1.0000   1.0000   1.0000   1.0000   1.0000
     1.0000   1.0000   1.0000   1.0000   1.0000   1.0000   1.0000   1.0000
     1.0000   1.0000   1.0000   1.0000   1.0000   1.0000   1.0000   1.0000
     1.0000   1.0000   1.0000   1.0000   1.0000   1.0000   1.0000   1.0000
     1.0000   1.0000   1.0000   1.0000   1.0000   1.0000   1.0000   1.0000
     1.0000   1.0000   1.0000   1.0000   1.0000   1.0000   1.0000   1.0000
     1.0000   1.0000   1.0000   1.0000   1.0000   1.0000   1.0000   1.0000
     1.0000   1.0000   1.0000   1.0000   1.0000   1.0000

[...]

          k = 0.4762 0.2177 0.0000 ( 14916 PWs)   bands (ev):

   -35.6365 -35.6365 -35.6365 -35.6364 -35.6030 -35.6030 -35.6030 -35.6030
   -35.5339 -35.5339 -35.5028 -35.5028 -34.1779 -34.1779 -34.1779 -34.1778
   -34.1501 -34.1501 -34.1501 -34.1501 -34.1344 -34.1343 -34.1343 -34.1343
   -34.0722 -34.0722 -34.0552 -34.0552 -34.0314 -34.0314 -28.2864 -28.2863
   -28.2862 -28.2862 -28.2784 -28.2784 -28.2781 -28.2781 -27.0463 -27.0463
   -27.0462 -27.0462 -27.0393 -27.0393 -27.0390 -27.0389 -27.0355 -27.0355
   -27.0353 -27.0352  -9.2818  -9.2818  -9.0899  -9.0899  -8.9097  -8.9096
    -7.3724  -7.3724  -6.8238  -6.8238  -3.0691  -3.0691  -1.8799  -1.8798
    -1.6324  -1.6322  -1.2589  -1.2587  -0.7645  -0.7645  -0.3202  -0.3200
     0.2937   0.2940   0.9127   0.9128   1.1994   1.1995

     occupation numbers
     1.0000   1.0000   1.0000   1.0000   1.0000   1.0000   1.0000   1.0000
     1.0000   1.0000   1.0000   1.0000   1.0000   1.0000   1.0000   1.0000
     1.0000   1.0000   1.0000   1.0000   1.0000   1.0000   1.0000   1.0000
     1.0000   1.0000   1.0000   1.0000   1.0000   1.0000   1.0000   1.0000
     1.0000   1.0000   1.0000   1.0000   1.0000   1.0000   1.0000   1.0000
     1.0000   1.0000   1.0000   1.0000   1.0000   1.0000   1.0000   1.0000
     1.0000   1.0000   1.0000   1.0000   1.0000   1.0000   1.0000   1.0000
     1.0000   1.0000   1.0000   1.0000   1.0000   1.0000   1.0000   1.0000
     1.0000   1.0000   1.0000   1.0000   1.0000   1.0000   1.0000   1.0000
     1.0000   1.0000   1.0000   1.0000   1.0000   1.0000

     highest occupied level (ev):     1.6554

!    total energy              =    -806.57069888 Ry
     estimated scf accuracy    <       0.00000002 Ry

     The total energy is the sum of the following terms:
     one-electron contribution =   -3375.28086611 Ry
     hartree contribution      =    1682.38529980 Ry
     xc contribution           =     -87.14320560 Ry
     ewald contribution        =     973.46807302 Ry

     convergence has been achieved in  14 iterations

     Writing all to output data dir tmp/Sb2Te3-uatsx-c2-soc-4.0.save/ :
     XML data file, charge density, pseudopotentials, collected wavefunctions

     General routines

     Parallel routines

   This run was terminated on:  17:42:13  14Aug2025

   JOB DONE.