     Program PWSCF v.7.4.1 starts on 14Aug2025 at 20: 2: 0

     Waiting for input...
     Reading input from standard input

     Current dimensions of program PWSCF are:
     Max number of different atomic species (ntypx) = 10
     Max number of k-points (npk) =  40000
     Max angular momentum in pseudopotentials (lmaxx) =  4

     IMPORTANT: XC functional enforced from input :
     Exchange-correlation= PBE
                           (   1   4   3   4   0   0   0)
     Any further DFT definition will be discarded
     Please, verify this is what you really want

     Message from routine setup:
     no reason to have ecutrho>4*ecutwfc

     R & G space division:  proc/nbgrp/npool/nimage =      24
     Subspace diagonalization in iterative solution of the eigenvalue problem:
     a serial algorithm will be used

     Using Slab Decomposition

     bravais-lattice index     =            0
     lattice parameter (alat)  =       8.2271  a.u.
     unit-cell volume          =    2430.6623 (a.u.)^3
     number of atoms/cell      =            5
     number of atomic types    =            2
     number of electrons       =        78.00
     number of Kohn-Sham states=           39
     kinetic-energy cutoff     =      50.0000  Ry
     charge density cutoff     =     500.0000  Ry
     scf convergence threshold =      1.0E-07
     mixing beta               =       0.7000
     number of iterations used =            8  plain     mixing
     Exchange-correlation= PBE
                           (   1   4   3   4   0   0   0)

     celldm(1)=   8.227090  celldm(2)=   0.000000  celldm(3)=   0.000000
     celldm(4)=   0.000000  celldm(5)=   0.000000  celldm(6)=   0.000000

     crystal axes: (cart. coord. in units of alat)
               a(1) = (   1.000000   0.000000   0.000000 )
               a(2) = (  -0.495050   0.857443   0.000000 )
               a(3) = (   0.000000   0.000000   5.090739 )

     reciprocal axes: (cart. coord. in units 2 pi/alat)
               b(1) = (  1.000000  0.577356 -0.000000 )
               b(2) = (  0.000000  1.166259  0.000000 )
               b(3) = (  0.000000 -0.000000  0.196435 )

     PseudoPot. # 1 for Sb read from file:
     /zfs-home/202401017n1/pseudos/Sb_ONCV_PBE-1.2.upf
     MD5 check sum: 0417cd6c0fe8ce4611e2b23135f1abd9
     Pseudo is Norm-conserving, Zval = 15.0
     Generated using ONCVPSP code by D. R. Hamann
     Using radial grid of  602 points,  6 beta functions with:
                l(1) =   0
                l(2) =   0
                l(3) =   1
                l(4) =   1
                l(5) =   2
                l(6) =   2

     PseudoPot. # 2 for Te read from file:
     /zfs-home/202401017n1/pseudos/Te_ONCV_PBE-1.2.upf
     MD5 check sum: dd4de4dac1e38587f63aaf3700bb29d3
     Pseudo is Norm-conserving, Zval = 16.0
     Generated using ONCVPSP code by D. R. Hamann
     Using radial grid of  602 points,  6 beta functions with:
                l(1) =   0
                l(2) =   0
                l(3) =   1
                l(4) =   1
                l(5) =   2
                l(6) =   2

     atomic species   valence    mass     pseudopotential
     Sb               15.00   121.76000     Sb( 1.00)
     Te               16.00   127.60000     Te( 1.00)

     No symmetry found

                                    s                        frac. trans.

      isym =  1     identity

 cryst.   s( 1) = (     1          0          0      )
                  (     0          1          0      )
                  (     0          0          1      )

 cart.    s( 1) = (  1.0000000  0.0000000  0.0000000 )
                  (  0.0000000  1.0000000  0.0000000 )
                  (  0.0000000  0.0000000  1.0000000 )

   Cartesian axes

     site n.     atom                  positions (alat units)
         1        Sb     tau(   1) = (   0.5788554   0.4207610   3.0040749  )
         2        Te     tau(   2) = (   0.5752577   0.4138624   1.6972962  )
         3        Sb     tau(   3) = (   0.0743102   0.1298379   2.0866212  )
         4        Te     tau(   4) = (   0.0782247   0.1361538   3.3933943  )
         5        Te     tau(   5) = (   0.0792404   0.7036244   2.5453648  )

     Parameters for Dispersion (Grimme-D2) Correction:
       atom      VdW radius       C_6

        Sb         3.555       1333.532
        Te         3.575       1101.101

   Crystallographic axes

     site n.     atom                  positions (cryst. coord.)
         1        Sb     tau(   1) = (  0.8217842  0.4907162  0.5901058  )
         2        Te     tau(   2) = (  0.8142035  0.4826706  0.3334086  )
         3        Sb     tau(   3) = (  0.1492728  0.1514246  0.4098857  )
         4        Te     tau(   4) = (  0.1568340  0.1587906  0.6665818  )
         5        Te     tau(   5) = (  0.4854821  0.8206082  0.4999990  )

     number of k points=   221
                       cart. coord. in units 2pi/alat
        k(    1) = (   0.0000000   0.0000000   0.0000000), wk =   0.0045351
        k(    2) = (   0.0000000   0.0555361   0.0000000), wk =   0.0090703
        k(    3) = (   0.0000000   0.1110723   0.0000000), wk =   0.0090703
        k(    4) = (   0.0000000   0.1666084   0.0000000), wk =   0.0090703
        k(    5) = (   0.0000000   0.2221445   0.0000000), wk =   0.0090703
        k(    6) = (   0.0000000   0.2776807   0.0000000), wk =   0.0090703
        k(    7) = (   0.0000000   0.3332168   0.0000000), wk =   0.0090703
        k(    8) = (   0.0000000   0.3887529   0.0000000), wk =   0.0090703
        k(    9) = (   0.0000000   0.4442891   0.0000000), wk =   0.0090703
        k(   10) = (   0.0000000   0.4998252   0.0000000), wk =   0.0090703
        k(   11) = (   0.0000000   0.5553613   0.0000000), wk =   0.0090703
        k(   12) = (   0.0476190   0.0274931   0.0000000), wk =   0.0090703
        k(   13) = (   0.0476190   0.0830293   0.0000000), wk =   0.0090703
        k(   14) = (   0.0476190   0.1385654   0.0000000), wk =   0.0090703
        k(   15) = (   0.0476190   0.1941015   0.0000000), wk =   0.0090703
        k(   16) = (   0.0476190   0.2496377   0.0000000), wk =   0.0090703
        k(   17) = (   0.0476190   0.3051738   0.0000000), wk =   0.0090703
        k(   18) = (   0.0476190   0.3607099   0.0000000), wk =   0.0090703
        k(   19) = (   0.0476190   0.4162461   0.0000000), wk =   0.0090703
        k(   20) = (   0.0476190   0.4717822   0.0000000), wk =   0.0090703
        k(   21) = (   0.0476190   0.5273183   0.0000000), wk =   0.0090703
        k(   22) = (   0.0476190   0.5828545   0.0000000), wk =   0.0090703
        k(   23) = (   0.0476190  -0.5278682   0.0000000), wk =   0.0090703
        k(   24) = (   0.0476190  -0.4723321   0.0000000), wk =   0.0090703
        k(   25) = (   0.0476190  -0.4167959   0.0000000), wk =   0.0090703
        k(   26) = (   0.0476190  -0.3612598   0.0000000), wk =   0.0090703
        k(   27) = (   0.0476190  -0.3057237   0.0000000), wk =   0.0090703
        k(   28) = (   0.0476190  -0.2501875   0.0000000), wk =   0.0090703
        k(   29) = (   0.0476190  -0.1946514   0.0000000), wk =   0.0090703
        k(   30) = (   0.0476190  -0.1391153   0.0000000), wk =   0.0090703
        k(   31) = (   0.0476190  -0.0835791   0.0000000), wk =   0.0090703
        k(   32) = (   0.0476190  -0.0280430   0.0000000), wk =   0.0090703
        k(   33) = (   0.0952381   0.0549863   0.0000000), wk =   0.0090703
        k(   34) = (   0.0952381   0.1105224   0.0000000), wk =   0.0090703
        k(   35) = (   0.0952381   0.1660585   0.0000000), wk =   0.0090703
        k(   36) = (   0.0952381   0.2215947   0.0000000), wk =   0.0090703
        k(   37) = (   0.0952381   0.2771308   0.0000000), wk =   0.0090703
        k(   38) = (   0.0952381   0.3326669   0.0000000), wk =   0.0090703
        k(   39) = (   0.0952381   0.3882031   0.0000000), wk =   0.0090703
        k(   40) = (   0.0952381   0.4437392   0.0000000), wk =   0.0090703
        k(   41) = (   0.0952381   0.4992753   0.0000000), wk =   0.0090703
        k(   42) = (   0.0952381   0.5548115   0.0000000), wk =   0.0090703
        k(   43) = (   0.0952381   0.6103476   0.0000000), wk =   0.0090703
        k(   44) = (   0.0952381  -0.5003751   0.0000000), wk =   0.0090703
        k(   45) = (   0.0952381  -0.4448389   0.0000000), wk =   0.0090703
        k(   46) = (   0.0952381  -0.3893028   0.0000000), wk =   0.0090703
        k(   47) = (   0.0952381  -0.3337667   0.0000000), wk =   0.0090703
        k(   48) = (   0.0952381  -0.2782305   0.0000000), wk =   0.0090703
        k(   49) = (   0.0952381  -0.2226944   0.0000000), wk =   0.0090703
        k(   50) = (   0.0952381  -0.1671583   0.0000000), wk =   0.0090703
        k(   51) = (   0.0952381  -0.1116221   0.0000000), wk =   0.0090703
        k(   52) = (   0.0952381  -0.0560860   0.0000000), wk =   0.0090703
        k(   53) = (   0.0952381  -0.0005499   0.0000000), wk =   0.0090703
        k(   54) = (   0.1428571   0.0824794   0.0000000), wk =   0.0090703
        k(   55) = (   0.1428571   0.1380155   0.0000000), wk =   0.0090703
        k(   56) = (   0.1428571   0.1935517   0.0000000), wk =   0.0090703
        k(   57) = (   0.1428571   0.2490878   0.0000000), wk =   0.0090703
        k(   58) = (   0.1428571   0.3046239   0.0000000), wk =   0.0090703
        k(   59) = (   0.1428571   0.3601601   0.0000000), wk =   0.0090703
        k(   60) = (   0.1428571   0.4156962   0.0000000), wk =   0.0090703
[...]
        k(  207) = (   0.4761905   0.6081482   0.0000000), wk =   0.0090703
        k(  208) = (   0.4761905   0.6636843   0.0000000), wk =   0.0090703
        k(  209) = (   0.4761905   0.7192204   0.0000000), wk =   0.0090703
        k(  210) = (   0.4761905   0.7747566   0.0000000), wk =   0.0090703
        k(  211) = (   0.4761905   0.8302927   0.0000000), wk =   0.0090703
        k(  212) = (   0.4761905  -0.2804300   0.0000000), wk =   0.0090703
        k(  213) = (   0.4761905  -0.2248939   0.0000000), wk =   0.0090703
        k(  214) = (   0.4761905  -0.1693577   0.0000000), wk =   0.0090703
        k(  215) = (   0.4761905  -0.1138216   0.0000000), wk =   0.0090703
        k(  216) = (   0.4761905  -0.0582854   0.0000000), wk =   0.0090703
        k(  217) = (   0.4761905  -0.0027493   0.0000000), wk =   0.0090703
        k(  218) = (   0.4761905   0.0527868   0.0000000), wk =   0.0090703
        k(  219) = (   0.4761905   0.1083230   0.0000000), wk =   0.0090703
        k(  220) = (   0.4761905   0.1638591   0.0000000), wk =   0.0090703
        k(  221) = (   0.4761905   0.2193952   0.0000000), wk =   0.0090703

                       cryst. coord.
        k(    1) = (   0.0000000   0.0000000   0.0000000), wk =   0.0045351
        k(    2) = (   0.0000000   0.0476190   0.0000000), wk =   0.0090703
        k(    3) = (   0.0000000   0.0952381   0.0000000), wk =   0.0090703
        k(    4) = (   0.0000000   0.1428571   0.0000000), wk =   0.0090703
        k(    5) = (   0.0000000   0.1904762   0.0000000), wk =   0.0090703
        k(    6) = (   0.0000000   0.2380952   0.0000000), wk =   0.0090703
        k(    7) = (   0.0000000   0.2857143   0.0000000), wk =   0.0090703
        k(    8) = (   0.0000000   0.3333333   0.0000000), wk =   0.0090703
        k(    9) = (   0.0000000   0.3809524   0.0000000), wk =   0.0090703
        k(   10) = (   0.0000000   0.4285714   0.0000000), wk =   0.0090703
        k(   11) = (   0.0000000   0.4761905   0.0000000), wk =   0.0090703
        k(   12) = (   0.0476190   0.0000000   0.0000000), wk =   0.0090703
        k(   13) = (   0.0476190   0.0476190   0.0000000), wk =   0.0090703
        k(   14) = (   0.0476190   0.0952381   0.0000000), wk =   0.0090703
        k(   15) = (   0.0476190   0.1428571   0.0000000), wk =   0.0090703
        k(   16) = (   0.0476190   0.1904762   0.0000000), wk =   0.0090703
        k(   17) = (   0.0476190   0.2380952   0.0000000), wk =   0.0090703
        k(   18) = (   0.0476190   0.2857143   0.0000000), wk =   0.0090703
        k(   19) = (   0.0476190   0.3333333   0.0000000), wk =   0.0090703
        k(   20) = (   0.0476190   0.3809524   0.0000000), wk =   0.0090703
        k(   21) = (   0.0476190   0.4285714   0.0000000), wk =   0.0090703
        k(   22) = (   0.0476190   0.4761905   0.0000000), wk =   0.0090703
        k(   23) = (   0.0476190  -0.4761905   0.0000000), wk =   0.0090703
        k(   24) = (   0.0476190  -0.4285714   0.0000000), wk =   0.0090703
        k(   25) = (   0.0476190  -0.3809524   0.0000000), wk =   0.0090703
        k(   26) = (   0.0476190  -0.3333333   0.0000000), wk =   0.0090703
        k(   27) = (   0.0476190  -0.2857143   0.0000000), wk =   0.0090703
        k(   28) = (   0.0476190  -0.2380952   0.0000000), wk =   0.0090703
        k(   29) = (   0.0476190  -0.1904762   0.0000000), wk =   0.0090703
        k(   30) = (   0.0476190  -0.1428571   0.0000000), wk =   0.0090703
        k(   31) = (   0.0476190  -0.0952381   0.0000000), wk =   0.0090703
        k(   32) = (   0.0476190  -0.0476190   0.0000000), wk =   0.0090703
        k(   33) = (   0.0952381   0.0000000   0.0000000), wk =   0.0090703
        k(   34) = (   0.0952381   0.0476190   0.0000000), wk =   0.0090703
        k(   35) = (   0.0952381   0.0952381   0.0000000), wk =   0.0090703
        k(   36) = (   0.0952381   0.1428571   0.0000000), wk =   0.0090703
        k(   37) = (   0.0952381   0.1904762   0.0000000), wk =   0.0090703
        k(   38) = (   0.0952381   0.2380952   0.0000000), wk =   0.0090703
        k(   39) = (   0.0952381   0.2857143   0.0000000), wk =   0.0090703
        k(   40) = (   0.0952381   0.3333333   0.0000000), wk =   0.0090703
        k(   41) = (   0.0952381   0.3809524   0.0000000), wk =   0.0090703
        k(   42) = (   0.0952381   0.4285714   0.0000000), wk =   0.0090703
        k(   43) = (   0.0952381   0.4761905   0.0000000), wk =   0.0090703
        k(   44) = (   0.0952381  -0.4761905   0.0000000), wk =   0.0090703
        k(   45) = (   0.0952381  -0.4285714   0.0000000), wk =   0.0090703
        k(   46) = (   0.0952381  -0.3809524   0.0000000), wk =   0.0090703
        k(   47) = (   0.0952381  -0.3333333   0.0000000), wk =   0.0090703
        k(   48) = (   0.0952381  -0.2857143   0.0000000), wk =   0.0090703
        k(   49) = (   0.0952381  -0.2380952   0.0000000), wk =   0.0090703
        k(   50) = (   0.0952381  -0.1904762   0.0000000), wk =   0.0090703
        k(   51) = (   0.0952381  -0.1428571   0.0000000), wk =   0.0090703
        k(   52) = (   0.0952381  -0.0952381   0.0000000), wk =   0.0090703
        k(   53) = (   0.0952381  -0.0476190   0.0000000), wk =   0.0090703
        k(   54) = (   0.1428571  -0.0000000   0.0000000), wk =   0.0090703
        k(   55) = (   0.1428571   0.0476190   0.0000000), wk =   0.0090703
        k(   56) = (   0.1428571   0.0952381   0.0000000), wk =   0.0090703
        k(   57) = (   0.1428571   0.1428571   0.0000000), wk =   0.0090703
        k(   58) = (   0.1428571   0.1904762   0.0000000), wk =   0.0090703
        k(   59) = (   0.1428571   0.2380952   0.0000000), wk =   0.0090703
        k(   60) = (   0.1428571   0.2857143   0.0000000), wk =   0.0090703
[...]
        k(  207) = (   0.4761905   0.2857143   0.0000000), wk =   0.0090703
        k(  208) = (   0.4761905   0.3333333   0.0000000), wk =   0.0090703
        k(  209) = (   0.4761905   0.3809524   0.0000000), wk =   0.0090703
        k(  210) = (   0.4761905   0.4285714   0.0000000), wk =   0.0090703
        k(  211) = (   0.4761905   0.4761905   0.0000000), wk =   0.0090703
        k(  212) = (   0.4761905  -0.4761905   0.0000000), wk =   0.0090703
        k(  213) = (   0.4761905  -0.4285714   0.0000000), wk =   0.0090703
        k(  214) = (   0.4761905  -0.3809524   0.0000000), wk =   0.0090703
        k(  215) = (   0.4761905  -0.3333333   0.0000000), wk =   0.0090703
        k(  216) = (   0.4761905  -0.2857143   0.0000000), wk =   0.0090703
        k(  217) = (   0.4761905  -0.2380952   0.0000000), wk =   0.0090703
        k(  218) = (   0.4761905  -0.1904762   0.0000000), wk =   0.0090703
        k(  219) = (   0.4761905  -0.1428571   0.0000000), wk =   0.0090703
        k(  220) = (   0.4761905  -0.0952381   0.0000000), wk =   0.0090703
        k(  221) = (   0.4761905  -0.0476190   0.0000000), wk =   0.0090703

     Initial potential from superposition of free atoms

     starting charge      77.7638, renormalised to      78.0000

     negative rho (up, down):  3.851E-04 0.000E+00
     Starting wfcs are random

     Self-consistent Calculation

     iteration #  1     ecut=    50.00 Ry     beta= 0.70
     Davidson diagonalization with overlap

     ethr =  1.00E-02,  avg # of iterations = 10.9

     Threshold (ethr) on eigenvalues was too large:
     Diagonalizing with lowered threshold

     Davidson diagonalization with overlap

[...]

     negative rho (up, down):  1.629E-05 0.000E+00

     total energy              =    -806.58329280 Ry
     estimated scf accuracy    <       0.08265933 Ry

[...]

     negative rho (up, down):  2.373E-08 0.000E+00

[...]

     total energy              =    -806.61986692 Ry
     estimated scf accuracy    <       0.00000020 Ry

     iteration # 14     ecut=    50.00 Ry     beta= 0.70
     Davidson diagonalization with overlap

     ethr =  2.59E-10,  avg # of iterations =  2.2

     End of self-consistent calculation

          k = 0.0000 0.0000 0.0000 ( 14485 PWs)   bands (ev):

   -34.6312 -34.6311 -34.6310 -34.6310 -34.6034 -34.6031 -34.6015 -34.6012
   -34.5919 -34.5919 -34.5193 -34.5090 -34.5056 -34.4693 -34.4692 -27.3884
   -27.3884 -27.3883 -27.3882 -27.3799 -27.3796 -27.3766 -27.3765 -27.3760
   -27.3758 -10.6165 -10.0898  -9.0034  -6.2469  -4.8359  -0.1459   0.2564
     0.3427   0.4766   0.5409   0.8550   1.0845   1.1356   1.3904

     occupation numbers
     1.0000   1.0000   1.0000   1.0000   1.0000   1.0000   1.0000   1.0000
     1.0000   1.0000   1.0000   1.0000   1.0000   1.0000   1.0000   1.0000
     1.0000   1.0000   1.0000   1.0000   1.0000   1.0000   1.0000   1.0000
     1.0000   1.0000   1.0000   1.0000   1.0000   1.0000   1.0000   1.0000
     1.0000   1.0000   1.0000   1.0000   1.0000   1.0000   1.0000

[...]

          k = 0.4762 0.2194 0.0000 ( 14534 PWs)   bands (ev):

   -34.6309 -34.6308 -34.6299 -34.6299 -34.6037 -34.6034 -34.6016 -34.6013
   -34.5913 -34.5913 -34.5186 -34.5094 -34.5057 -34.4692 -34.4679 -27.3888
   -27.3887 -27.3850 -27.3848 -27.3797 -27.3795 -27.3776 -27.3774 -27.3767
   -27.3757  -9.0899  -8.8979  -8.7145  -7.1792  -6.6435  -2.9369  -1.6947
    -1.4450  -1.1829  -0.5776  -0.2297   0.5825   0.9147   1.1903

     occupation numbers
     1.0000   1.0000   1.0000   1.0000   1.0000   1.0000   1.0000   1.0000
     1.0000   1.0000   1.0000   1.0000   1.0000   1.0000   1.0000   1.0000
     1.0000   1.0000   1.0000   1.0000   1.0000   1.0000   1.0000   1.0000
     1.0000   1.0000   1.0000   1.0000   1.0000   1.0000   1.0000   1.0000
     1.0000   1.0000   1.0000   1.0000   1.0000   1.0000   1.0000

     highest occupied level (ev):     1.8268

!    total energy              =    -806.61986689 Ry
     estimated scf accuracy    <       0.00000003 Ry

     The total energy is the sum of the following terms:
     one-electron contribution =   -3396.08785228 Ry
     hartree contribution      =    1693.25180818 Ry
     xc contribution           =     -87.16542215 Ry
     ewald contribution        =     983.48093266 Ry
     Dispersion Correction     =      -0.09933330 Ry

     convergence has been achieved in  14 iterations

     Writing all to output data dir tmp/Sb2Te3-uatsx-c3-1.0.save/ :
     XML data file, charge density, pseudopotentials, collected wavefunctions

     General routines

     Parallel routines

   This run was terminated on:  20: 6:20  14Aug2025

   JOB DONE.