     Program PWSCF v.7.3.1 starts on 14May2025 at 17:40:23

     Waiting for input...
     Reading input from standard input

     Current dimensions of program PWSCF are:
     Max number of different atomic species (ntypx) = 10
     Max number of k-points (npk) =  40000
     Max angular momentum in pseudopotentials (lmaxx) =  4

     IMPORTANT: XC functional enforced from input :
     Exchange-correlation= B3LYP-V1R
                           (   7  13   9   7   0   0   0)
     EXX-fraction              =        0.20
     Any further DFT definition will be discarded
     Please, verify this is what you really want

     EXX fraction changed:   0.20

     R & G space division:  proc/nbgrp/npool/nimage =      72
     Subspace diagonalization in iterative solution of the eigenvalue problem:
     a serial algorithm will be used

     EXX: q-point mesh:     1    1    1
     EXX: setup a grid of 85 q-points centered on each k-point
     (k+q)-points:
   0.0000000   0.0000000   0.0000000         1    1
   0.0000000   0.0897122   0.0000000         2    1
   0.0000000   0.1794244   0.0000000         3    1
   0.0000000   0.2691367   0.0000000         4    1
   0.0000000   0.3588489   0.0000000         5    1
   0.0000000   0.4485611   0.0000000         6    1
   0.0000000   0.5382733   0.0000000         7    1
   0.0769231   0.0444120   0.0000000         8    1
   0.0769231   0.1341242   0.0000000         9    1
   0.0769231   0.2238364   0.0000000        10    1
   0.0769231   0.3135486   0.0000000        11    1
   0.0769231   0.4032609   0.0000000        12    1
   0.0769231   0.4929731   0.0000000        13    1
   0.0769231   0.5826853   0.0000000        14    1
   0.0769231  -0.4938613   0.0000000        15    1
   0.0769231  -0.4041491   0.0000000        16    1
   0.0769231  -0.3144369   0.0000000        17    1
   0.0769231  -0.2247247   0.0000000        18    1
   0.0769231  -0.1350124   0.0000000        19    1
   0.0769231  -0.0453002   0.0000000        20    1
   0.1538462   0.0888240   0.0000000        21    1
   0.1538462   0.1785362   0.0000000        22    1
   0.1538462   0.2682484   0.0000000        23    1
   0.1538462   0.3579606   0.0000000        24    1
   0.1538462   0.4476728   0.0000000        25    1
   0.1538462   0.5373851   0.0000000        26    1
   0.1538462   0.6270973   0.0000000        27    1
   0.1538462  -0.4494493   0.0000000        28    1
   0.1538462  -0.3597371   0.0000000        29    1
   0.1538462  -0.2700249   0.0000000        30    1
   0.1538462  -0.1803127   0.0000000        31    1
   0.1538462  -0.0906005   0.0000000        32    1
   0.1538462  -0.0008882   0.0000000        33    1
   0.2307692   0.1332360   0.0000000        34    1
   0.2307692   0.2229482   0.0000000        35    1
   0.2307692   0.3126604   0.0000000        36    1
   0.2307692   0.4023726   0.0000000        37    1
   0.2307692   0.4920848   0.0000000        38    1
   0.2307692   0.5817971   0.0000000        39    1
   0.2307692   0.6715093   0.0000000        40    1
   0.2307692  -0.4050373   0.0000000        41    1
   0.2307692  -0.3153251   0.0000000        42    1
   0.2307692  -0.2256129   0.0000000        43    1
   0.2307692  -0.1359007   0.0000000        44    1
   0.2307692  -0.0461885   0.0000000        45    1
   0.2307692   0.0435237   0.0000000        46    1
   0.3076923   0.1776480   0.0000000        47    1
   0.3076923   0.2673602   0.0000000        48    1
   0.3076923   0.3570724   0.0000000        49    1
   0.3076923   0.4467846   0.0000000        50    1
   0.3076923   0.5364968   0.0000000        51    1
   0.3076923   0.6262090   0.0000000        52    1
   0.3076923   0.7159213   0.0000000        53    1
   0.3076923  -0.3606253   0.0000000        54    1
   0.3076923  -0.2709131   0.0000000        55    1
   0.3076923  -0.1812009   0.0000000        56    1
   0.3076923  -0.0914887   0.0000000        57    1
   0.3076923  -0.0017765   0.0000000        58    1
   0.3076923   0.0879357   0.0000000        59    1
   0.3846154   0.2220599   0.0000000        60    1
[...]
   0.3846154   0.0426355   0.0000000        71    1
   0.3846154   0.1323477   0.0000000        72    1
   0.4615385   0.2664719   0.0000000        73    1
   0.4615385   0.3561841   0.0000000        74    1
   0.4615385   0.4458964   0.0000000        75    1
   0.4615385   0.5356086   0.0000000        76    1
   0.4615385   0.6253208   0.0000000        77    1
   0.4615385   0.7150330   0.0000000        78    1
   0.4615385   0.8047452   0.0000000        79    1
   0.4615385  -0.2718014   0.0000000        80    1
   0.4615385  -0.1820892   0.0000000        81    1
   0.4615385  -0.0923769   0.0000000        82    1
   0.4615385  -0.0026647   0.0000000        83    1
   0.4615385   0.0870475   0.0000000        84    1
   0.4615385   0.1767597   0.0000000        85    1

     Using Slab Decomposition

     bravais-lattice index     =            0
     lattice parameter (alat)  =       8.2271  a.u.
     unit-cell volume          =    2430.6623 (a.u.)^3
     number of atoms/cell      =            5
     number of atomic types    =            2
     number of electrons       =        78.00
     number of Kohn-Sham states=           60
     kinetic-energy cutoff     =      70.0000  Ry
     charge density cutoff     =     280.0000  Ry
     cutoff for Fock operator  =     280.0000  Ry
     scf convergence threshold =      1.0E-06
     mixing beta               =       0.7000
     number of iterations used =            8  plain     mixing
     Exchange-correlation= B3LYP-V1R
                           (   7  13   9   7   0   0   0)
     EXX-fraction              =        0.20

     celldm(1)=   8.227090  celldm(2)=   0.000000  celldm(3)=   0.000000
     celldm(4)=   0.000000  celldm(5)=   0.000000  celldm(6)=   0.000000

     crystal axes: (cart. coord. in units of alat)
               a(1) = (   1.000000   0.000000   0.000000 )
               a(2) = (  -0.495050   0.857443   0.000000 )
               a(3) = (   0.000000   0.000000   5.090739 )

     reciprocal axes: (cart. coord. in units 2 pi/alat)
               b(1) = (  1.000000  0.577356 -0.000000 )
               b(2) = (  0.000000  1.166259  0.000000 )
               b(3) = (  0.000000 -0.000000  0.196435 )

     PseudoPot. # 1 for Sb read from file:
     /zfs-home/202401017n/pseudos/Sb_ONCV_PBE-1.2.upf
     MD5 check sum: 0417cd6c0fe8ce4611e2b23135f1abd9
     Pseudo is Norm-conserving, Zval = 15.0
     Generated using ONCVPSP code by D. R. Hamann
     Using radial grid of  602 points,  6 beta functions with:
                l(1) =   0
                l(2) =   0
                l(3) =   1
                l(4) =   1
                l(5) =   2
                l(6) =   2

     PseudoPot. # 2 for Te read from file:
     /zfs-home/202401017n/pseudos/Te_ONCV_PBE-1.2.upf
     MD5 check sum: dd4de4dac1e38587f63aaf3700bb29d3
     Pseudo is Norm-conserving, Zval = 16.0
     Generated using ONCVPSP code by D. R. Hamann
     Using radial grid of  602 points,  6 beta functions with:
                l(1) =   0
                l(2) =   0
                l(3) =   1
                l(4) =   1
                l(5) =   2
                l(6) =   2

     atomic species   valence    mass     pseudopotential
     Sb               15.00   121.76000     Sb( 1.00)
     Te               16.00   127.60000     Te( 1.00)

     No symmetry found

                                    s                        frac. trans.

      isym =  1     identity

 cryst.   s( 1) = (     1          0          0      )
                  (     0          1          0      )
                  (     0          0          1      )

 cart.    s( 1) = (  1.0000000  0.0000000  0.0000000 )
                  (  0.0000000  1.0000000  0.0000000 )
                  (  0.0000000  0.0000000  1.0000000 )

   Cartesian axes

     site n.     atom                  positions (alat units)
         1        Sb     tau(   1) = (   0.5788554   0.4207610   3.0040749  )
         2        Te     tau(   2) = (   0.5752577   0.4138624   1.6972962  )
         3        Sb     tau(   3) = (   0.0743102   0.1298379   2.0866212  )
         4        Te     tau(   4) = (   0.0782247   0.1361538   3.3933943  )
         5        Te     tau(   5) = (   0.0792404   0.7036244   2.5453648  )

     Parameters for Dispersion (Grimme-D2) Correction:
       atom      VdW radius       C_6

        Sb         3.555       1333.532
        Te         3.575       1101.101

   Crystallographic axes

     site n.     atom                  positions (cryst. coord.)
         1        Sb     tau(   1) = (  0.8217842  0.4907162  0.5901058  )
         2        Te     tau(   2) = (  0.8142035  0.4826706  0.3334086  )
         3        Sb     tau(   3) = (  0.1492728  0.1514246  0.4098857  )
         4        Te     tau(   4) = (  0.1568340  0.1587906  0.6665818  )
         5        Te     tau(   5) = (  0.4854821  0.8206082  0.4999990  )

     number of k points=    85
                       cart. coord. in units 2pi/alat
        k(    1) = (   0.0000000   0.0000000   0.0000000), wk =   0.0118343
        k(    2) = (   0.0000000   0.0897122   0.0000000), wk =   0.0236686
        k(    3) = (   0.0000000   0.1794244   0.0000000), wk =   0.0236686
        k(    4) = (   0.0000000   0.2691367   0.0000000), wk =   0.0236686
        k(    5) = (   0.0000000   0.3588489   0.0000000), wk =   0.0236686
        k(    6) = (   0.0000000   0.4485611   0.0000000), wk =   0.0236686
        k(    7) = (   0.0000000   0.5382733   0.0000000), wk =   0.0236686
        k(    8) = (   0.0769231   0.0444120   0.0000000), wk =   0.0236686
        k(    9) = (   0.0769231   0.1341242   0.0000000), wk =   0.0236686
        k(   10) = (   0.0769231   0.2238364   0.0000000), wk =   0.0236686
        k(   11) = (   0.0769231   0.3135486   0.0000000), wk =   0.0236686
        k(   12) = (   0.0769231   0.4032609   0.0000000), wk =   0.0236686
        k(   13) = (   0.0769231   0.4929731   0.0000000), wk =   0.0236686
        k(   14) = (   0.0769231   0.5826853   0.0000000), wk =   0.0236686
        k(   15) = (   0.0769231  -0.4938613   0.0000000), wk =   0.0236686
        k(   16) = (   0.0769231  -0.4041491   0.0000000), wk =   0.0236686
        k(   17) = (   0.0769231  -0.3144369   0.0000000), wk =   0.0236686
        k(   18) = (   0.0769231  -0.2247247   0.0000000), wk =   0.0236686
        k(   19) = (   0.0769231  -0.1350124   0.0000000), wk =   0.0236686
        k(   20) = (   0.0769231  -0.0453002   0.0000000), wk =   0.0236686
        k(   21) = (   0.1538462   0.0888240   0.0000000), wk =   0.0236686
        k(   22) = (   0.1538462   0.1785362   0.0000000), wk =   0.0236686
        k(   23) = (   0.1538462   0.2682484   0.0000000), wk =   0.0236686
        k(   24) = (   0.1538462   0.3579606   0.0000000), wk =   0.0236686
        k(   25) = (   0.1538462   0.4476728   0.0000000), wk =   0.0236686
        k(   26) = (   0.1538462   0.5373851   0.0000000), wk =   0.0236686
        k(   27) = (   0.1538462   0.6270973   0.0000000), wk =   0.0236686
        k(   28) = (   0.1538462  -0.4494493   0.0000000), wk =   0.0236686
        k(   29) = (   0.1538462  -0.3597371   0.0000000), wk =   0.0236686
        k(   30) = (   0.1538462  -0.2700249   0.0000000), wk =   0.0236686
        k(   31) = (   0.1538462  -0.1803127   0.0000000), wk =   0.0236686
        k(   32) = (   0.1538462  -0.0906005   0.0000000), wk =   0.0236686
        k(   33) = (   0.1538462  -0.0008882   0.0000000), wk =   0.0236686
        k(   34) = (   0.2307692   0.1332360   0.0000000), wk =   0.0236686
        k(   35) = (   0.2307692   0.2229482   0.0000000), wk =   0.0236686
        k(   36) = (   0.2307692   0.3126604   0.0000000), wk =   0.0236686
        k(   37) = (   0.2307692   0.4023726   0.0000000), wk =   0.0236686
        k(   38) = (   0.2307692   0.4920848   0.0000000), wk =   0.0236686
        k(   39) = (   0.2307692   0.5817971   0.0000000), wk =   0.0236686
        k(   40) = (   0.2307692   0.6715093   0.0000000), wk =   0.0236686
        k(   41) = (   0.2307692  -0.4050373   0.0000000), wk =   0.0236686
        k(   42) = (   0.2307692  -0.3153251   0.0000000), wk =   0.0236686
        k(   43) = (   0.2307692  -0.2256129   0.0000000), wk =   0.0236686
        k(   44) = (   0.2307692  -0.1359007   0.0000000), wk =   0.0236686
        k(   45) = (   0.2307692  -0.0461885   0.0000000), wk =   0.0236686
        k(   46) = (   0.2307692   0.0435237   0.0000000), wk =   0.0236686
        k(   47) = (   0.3076923   0.1776480   0.0000000), wk =   0.0236686
        k(   48) = (   0.3076923   0.2673602   0.0000000), wk =   0.0236686
        k(   49) = (   0.3076923   0.3570724   0.0000000), wk =   0.0236686
        k(   50) = (   0.3076923   0.4467846   0.0000000), wk =   0.0236686
        k(   51) = (   0.3076923   0.5364968   0.0000000), wk =   0.0236686
        k(   52) = (   0.3076923   0.6262090   0.0000000), wk =   0.0236686
        k(   53) = (   0.3076923   0.7159213   0.0000000), wk =   0.0236686
        k(   54) = (   0.3076923  -0.3606253   0.0000000), wk =   0.0236686
        k(   55) = (   0.3076923  -0.2709131   0.0000000), wk =   0.0236686
        k(   56) = (   0.3076923  -0.1812009   0.0000000), wk =   0.0236686
        k(   57) = (   0.3076923  -0.0914887   0.0000000), wk =   0.0236686
        k(   58) = (   0.3076923  -0.0017765   0.0000000), wk =   0.0236686
        k(   59) = (   0.3076923   0.0879357   0.0000000), wk =   0.0236686
        k(   60) = (   0.3846154   0.2220599   0.0000000), wk =   0.0236686
[...]
        k(   71) = (   0.3846154   0.0426355   0.0000000), wk =   0.0236686
        k(   72) = (   0.3846154   0.1323477   0.0000000), wk =   0.0236686
        k(   73) = (   0.4615385   0.2664719   0.0000000), wk =   0.0236686
        k(   74) = (   0.4615385   0.3561841   0.0000000), wk =   0.0236686
        k(   75) = (   0.4615385   0.4458964   0.0000000), wk =   0.0236686
        k(   76) = (   0.4615385   0.5356086   0.0000000), wk =   0.0236686
        k(   77) = (   0.4615385   0.6253208   0.0000000), wk =   0.0236686
        k(   78) = (   0.4615385   0.7150330   0.0000000), wk =   0.0236686
        k(   79) = (   0.4615385   0.8047452   0.0000000), wk =   0.0236686
        k(   80) = (   0.4615385  -0.2718014   0.0000000), wk =   0.0236686
        k(   81) = (   0.4615385  -0.1820892   0.0000000), wk =   0.0236686
        k(   82) = (   0.4615385  -0.0923769   0.0000000), wk =   0.0236686
        k(   83) = (   0.4615385  -0.0026647   0.0000000), wk =   0.0236686
        k(   84) = (   0.4615385   0.0870475   0.0000000), wk =   0.0236686
        k(   85) = (   0.4615385   0.1767597   0.0000000), wk =   0.0236686

                       cryst. coord.
        k(    1) = (   0.0000000   0.0000000   0.0000000), wk =   0.0118343
        k(    2) = (   0.0000000   0.0769231   0.0000000), wk =   0.0236686
        k(    3) = (   0.0000000   0.1538462   0.0000000), wk =   0.0236686
        k(    4) = (   0.0000000   0.2307692   0.0000000), wk =   0.0236686
        k(    5) = (   0.0000000   0.3076923   0.0000000), wk =   0.0236686
        k(    6) = (   0.0000000   0.3846154   0.0000000), wk =   0.0236686
        k(    7) = (   0.0000000   0.4615385   0.0000000), wk =   0.0236686
        k(    8) = (   0.0769231  -0.0000000   0.0000000), wk =   0.0236686
        k(    9) = (   0.0769231   0.0769231   0.0000000), wk =   0.0236686
        k(   10) = (   0.0769231   0.1538462   0.0000000), wk =   0.0236686
        k(   11) = (   0.0769231   0.2307692   0.0000000), wk =   0.0236686
        k(   12) = (   0.0769231   0.3076923   0.0000000), wk =   0.0236686
        k(   13) = (   0.0769231   0.3846154   0.0000000), wk =   0.0236686
        k(   14) = (   0.0769231   0.4615385   0.0000000), wk =   0.0236686
        k(   15) = (   0.0769231  -0.4615385   0.0000000), wk =   0.0236686
        k(   16) = (   0.0769231  -0.3846154   0.0000000), wk =   0.0236686
        k(   17) = (   0.0769231  -0.3076923   0.0000000), wk =   0.0236686
        k(   18) = (   0.0769231  -0.2307692   0.0000000), wk =   0.0236686
        k(   19) = (   0.0769231  -0.1538462   0.0000000), wk =   0.0236686
        k(   20) = (   0.0769231  -0.0769231   0.0000000), wk =   0.0236686
        k(   21) = (   0.1538462  -0.0000000   0.0000000), wk =   0.0236686
        k(   22) = (   0.1538462   0.0769231   0.0000000), wk =   0.0236686
        k(   23) = (   0.1538462   0.1538462   0.0000000), wk =   0.0236686
        k(   24) = (   0.1538462   0.2307692   0.0000000), wk =   0.0236686
        k(   25) = (   0.1538462   0.3076923   0.0000000), wk =   0.0236686
        k(   26) = (   0.1538462   0.3846154   0.0000000), wk =   0.0236686
        k(   27) = (   0.1538462   0.4615385   0.0000000), wk =   0.0236686
        k(   28) = (   0.1538462  -0.4615385   0.0000000), wk =   0.0236686
        k(   29) = (   0.1538462  -0.3846154   0.0000000), wk =   0.0236686
        k(   30) = (   0.1538462  -0.3076923   0.0000000), wk =   0.0236686
        k(   31) = (   0.1538462  -0.2307692   0.0000000), wk =   0.0236686
        k(   32) = (   0.1538462  -0.1538462   0.0000000), wk =   0.0236686
        k(   33) = (   0.1538462  -0.0769231   0.0000000), wk =   0.0236686
        k(   34) = (   0.2307692  -0.0000000   0.0000000), wk =   0.0236686
        k(   35) = (   0.2307692   0.0769231   0.0000000), wk =   0.0236686
        k(   36) = (   0.2307692   0.1538462   0.0000000), wk =   0.0236686
        k(   37) = (   0.2307692   0.2307692   0.0000000), wk =   0.0236686
        k(   38) = (   0.2307692   0.3076923   0.0000000), wk =   0.0236686
        k(   39) = (   0.2307692   0.3846154   0.0000000), wk =   0.0236686
        k(   40) = (   0.2307692   0.4615385   0.0000000), wk =   0.0236686
        k(   41) = (   0.2307692  -0.4615385   0.0000000), wk =   0.0236686
        k(   42) = (   0.2307692  -0.3846154   0.0000000), wk =   0.0236686
        k(   43) = (   0.2307692  -0.3076923   0.0000000), wk =   0.0236686
        k(   44) = (   0.2307692  -0.2307692   0.0000000), wk =   0.0236686
        k(   45) = (   0.2307692  -0.1538462   0.0000000), wk =   0.0236686
        k(   46) = (   0.2307692  -0.0769231   0.0000000), wk =   0.0236686
        k(   47) = (   0.3076923  -0.0000000   0.0000000), wk =   0.0236686
        k(   48) = (   0.3076923   0.0769231   0.0000000), wk =   0.0236686
        k(   49) = (   0.3076923   0.1538462   0.0000000), wk =   0.0236686
        k(   50) = (   0.3076923   0.2307692   0.0000000), wk =   0.0236686
        k(   51) = (   0.3076923   0.3076923   0.0000000), wk =   0.0236686
        k(   52) = (   0.3076923   0.3846154   0.0000000), wk =   0.0236686
        k(   53) = (   0.3076923   0.4615385   0.0000000), wk =   0.0236686
        k(   54) = (   0.3076923  -0.4615385   0.0000000), wk =   0.0236686
        k(   55) = (   0.3076923  -0.3846154   0.0000000), wk =   0.0236686
        k(   56) = (   0.3076923  -0.3076923   0.0000000), wk =   0.0236686
        k(   57) = (   0.3076923  -0.2307692   0.0000000), wk =   0.0236686
        k(   58) = (   0.3076923  -0.1538462   0.0000000), wk =   0.0236686
        k(   59) = (   0.3076923  -0.0769231   0.0000000), wk =   0.0236686
        k(   60) = (   0.3846154   0.0000000   0.0000000), wk =   0.0236686
[...]
        k(   71) = (   0.3846154  -0.1538462   0.0000000), wk =   0.0236686
        k(   72) = (   0.3846154  -0.0769231   0.0000000), wk =   0.0236686
        k(   73) = (   0.4615385  -0.0000000   0.0000000), wk =   0.0236686
        k(   74) = (   0.4615385   0.0769231   0.0000000), wk =   0.0236686
        k(   75) = (   0.4615385   0.1538462   0.0000000), wk =   0.0236686
        k(   76) = (   0.4615385   0.2307692   0.0000000), wk =   0.0236686
        k(   77) = (   0.4615385   0.3076923   0.0000000), wk =   0.0236686
        k(   78) = (   0.4615385   0.3846154   0.0000000), wk =   0.0236686
        k(   79) = (   0.4615385   0.4615385   0.0000000), wk =   0.0236686
        k(   80) = (   0.4615385  -0.4615385   0.0000000), wk =   0.0236686
        k(   81) = (   0.4615385  -0.3846154   0.0000000), wk =   0.0236686
        k(   82) = (   0.4615385  -0.3076923   0.0000000), wk =   0.0236686
        k(   83) = (   0.4615385  -0.2307692   0.0000000), wk =   0.0236686
        k(   84) = (   0.4615385  -0.1538462   0.0000000), wk =   0.0236686
        k(   85) = (   0.4615385  -0.0769231   0.0000000), wk =   0.0236686

     Initial potential from superposition of free atoms

     starting charge      77.7638, renormalised to      78.0000

     negative rho (up, down):  6.495E-04 0.000E+00
     Starting wfcs are random

     Self-consistent Calculation

     iteration #  1     ecut=    70.00 Ry     beta= 0.70
     Davidson diagonalization with overlap

     ethr =  1.00E-02,  avg # of iterations = 10.1

     Threshold (ethr) on eigenvalues was too large:
     Diagonalizing with lowered threshold

     Davidson diagonalization with overlap

[...]

     negative rho (up, down):  4.717E-05 0.000E+00

     total energy              =    -807.02986297 Ry
     estimated scf accuracy    <       0.10223124 Ry

[...]

     c_bands:  1 eigenvalues not converged
     c_bands:  1 eigenvalues not converged
     c_bands:  1 eigenvalues not converged
     ethr =  2.37E-06,  avg # of iterations = 11.4

     negative rho (up, down):  7.350E-07 0.000E+00

[...]

     End of self-consistent calculation

          k = 0.0000 0.0000 0.0000 ( 23927 PWs)   bands (ev):

   -34.5841 -34.5838 -34.5834 -34.5830 -34.5562 -34.5554 -34.5539 -34.5536
   -34.5425 -34.5418 -34.4481 -34.4396 -34.4361 -34.3982 -34.3980 -27.3835
   -27.3827 -27.3821 -27.3814 -27.3718 -27.3716 -27.3706 -27.3705 -27.3682
   -27.3670 -10.5240 -10.0043  -8.9340  -6.2038  -4.8296  -0.0522   0.3340
     0.4185   0.5669   0.6296   0.9346   1.1922   1.2416   1.4963   2.5771
     2.9662   3.0015   3.9715   4.0080   4.0552   6.4835   6.6801   7.2997
     7.8496   8.0174   8.1586   8.7032   9.0636   9.1131   9.2692   9.4156
     9.9297   9.9828  10.4139  10.4749

     occupation numbers
     1.0000   1.0000   1.0000   1.0000   1.0000   1.0000   1.0000   1.0000
     1.0000   1.0000   1.0000   1.0000   1.0000   1.0000   1.0000   1.0000
     1.0000   1.0000   1.0000   1.0000   1.0000   1.0000   1.0000   1.0000
     1.0000   1.0000   1.0000   1.0000   1.0000   1.0000   1.0000   1.0000
     1.0000   1.0000   1.0000   1.0000   1.0000   1.0000   1.0000   0.0000
     0.0000   0.0000   0.0000   0.0000   0.0000   0.0000   0.0000   0.0000
     0.0000   0.0000   0.0000   0.0000   0.0000   0.0000   0.0000   0.0000
     0.0000   0.0000   0.0000   0.0000

[...]

     highest occupied, lowest unoccupied level (ev):     1.9055    2.5771

!    total energy              =    -807.08033295 Ry
     estimated scf accuracy    <       0.00000031 Ry

     convergence has been achieved in   8 iterations

     Using ACE for calculation of exact exchange

     EXX: now go back to refine exchange calculation

[...]

     Using ACE for calculation of exact exchange
     ACE projected onto    60 (nbndproj) and applied to    60 (nbnd) bands
     BEWARE: negative dexx:  -0.231E-03

     total energy              =    -804.24434648 Ry
     Harris-Foulkes estimate   =    -804.24434738 Ry
     est. exchange err (dexx)  =       0.00023053 Ry
     - averaged Fock potential =      27.27289395 Ry
     + Fock energy (ACE)       =     -13.65308296 Ry

[...]

     total energy              =    -804.24490606 Ry
     estimated scf accuracy    <       0.00000108 Ry

[...]

     ethr =  1.38E-09,  avg # of iterations =  6.3

[...]

     total energy              =    -804.24490482 Ry
     Harris-Foulkes estimate   =    -804.24490480 Ry
     est. exchange err (dexx)  =       0.00000141 Ry
     - averaged Fock potential =      27.30937775 Ry
     + Fock energy (ACE)       =     -13.65464645 Ry

     EXX: now go back to refine exchange calculation

     Self-consistent Calculation

     iteration #  1     ecut=    70.00 Ry     beta= 0.70
     Davidson diagonalization with overlap

     c_bands:  1 eigenvalues not converged
     c_bands:  1 eigenvalues not converged
     ethr =  1.38E-09,  avg # of iterations =  8.4

     End of self-consistent calculation

[...]

          k = 0.4615 0.1768 0.0000 ( 24075 PWs)   bands (ev):

   -35.5240 -35.5232 -35.5124 -35.5115 -35.4889 -35.4885 -35.4863 -35.4851
   -35.4660 -35.4651 -35.0827 -35.0747 -35.0636 -35.0221 -35.0161 -28.4636
   -28.4622 -28.4525 -28.4516 -28.4439 -28.4432 -28.4343 -28.4337 -28.4169
   -28.4164 -10.6054 -10.3982  -9.9602  -8.5128  -7.9982  -3.8709  -2.6154
    -2.4573  -2.1684  -1.5507  -1.0591   0.2505   0.4994   1.0591   3.4580
     3.4978   3.8899   5.5414   5.7583   6.4030   6.6522   7.9831   8.5993
     8.9932   9.5493   9.8362   9.9090  10.4700  10.7035  11.0505  11.1239
    11.6190  11.8234  12.2118  12.5707

     occupation numbers
     1.0000   1.0000   1.0000   1.0000   1.0000   1.0000   1.0000   1.0000
     1.0000   1.0000   1.0000   1.0000   1.0000   1.0000   1.0000   1.0000
     1.0000   1.0000   1.0000   1.0000   1.0000   1.0000   1.0000   1.0000
     1.0000   1.0000   1.0000   1.0000   1.0000   1.0000   1.0000   1.0000
     1.0000   1.0000   1.0000   1.0000   1.0000   1.0000   1.0000   0.0000
     0.0000   0.0000   0.0000   0.0000   0.0000   0.0000   0.0000   0.0000
     0.0000   0.0000   0.0000   0.0000   0.0000   0.0000   0.0000   0.0000
     0.0000   0.0000   0.0000   0.0000

     highest occupied, lowest unoccupied level (ev):     1.4539    2.6995

!    total energy              =    -804.24490579 Ry
     estimated scf accuracy    <       0.00000019 Ry

     convergence has been achieved in   1 iterations

     Using ACE for calculation of exact exchange
     ACE projected onto    60 (nbndproj) and applied to    60 (nbnd) bands
     BEWARE: negative dexx:  -0.237E-06

!!   total energy              =    -804.24490555 Ry
     Harris-Foulkes estimate   =    -804.24490576 Ry
     est. exchange err (dexx)  =       0.00000024 Ry
     - averaged Fock potential =      27.30936386 Ry
     + Fock energy (ACE)       =     -13.65471717 Ry

     EXX self-consistency reached

     Writing all to output data dir tmp/Sb2Te3-uatsx-c1-1.0.save/ :
     XML data file, charge density, pseudopotentials, collected wavefunctions

     General routines

     Parallel routines

     EXX routines

   This run was terminated on:  19:37:52  14May2025

   JOB DONE.