     Program PWSCF v.7.3.1 starts on 14May2025 at 22: 3:49

     Waiting for input...
     Reading input from standard input

     Current dimensions of program PWSCF are:
     Max number of different atomic species (ntypx) = 10
     Max number of k-points (npk) =  40000
     Max angular momentum in pseudopotentials (lmaxx) =  4

     IMPORTANT: XC functional enforced from input :
     Exchange-correlation= B3LYP-V1R
                           (   7  13   9   7   0   0   0)
     EXX-fraction              =        0.20
     Any further DFT definition will be discarded
     Please, verify this is what you really want

     EXX fraction changed:   0.20

     R & G space division:  proc/nbgrp/npool/nimage =      72
     Subspace diagonalization in iterative solution of the eigenvalue problem:
     a serial algorithm will be used

     EXX: q-point mesh:     1    1    1
     EXX: setup a grid of 85 q-points centered on each k-point
     (k+q)-points:
   0.0000000   0.0000000   0.0000000         1    1
   0.0000000   0.0914887   0.0000000         2    1
   0.0000000   0.1829774   0.0000000         3    1
   0.0000000   0.2744661   0.0000000         4    1
   0.0000000   0.3659548   0.0000000         5    1
   0.0000000   0.4574435   0.0000000         6    1
   0.0000000   0.5489322   0.0000000         7    1
   0.0769231   0.0444120   0.0000000         8    1
   0.0769231   0.1359007   0.0000000         9    1
   0.0769231   0.2273894   0.0000000        10    1
   0.0769231   0.3188781   0.0000000        11    1
   0.0769231   0.4103668   0.0000000        12    1
   0.0769231   0.5018555   0.0000000        13    1
   0.0769231   0.5933442   0.0000000        14    1
   0.0769231  -0.5045202   0.0000000        15    1
   0.0769231  -0.4130315   0.0000000        16    1
   0.0769231  -0.3215428   0.0000000        17    1
   0.0769231  -0.2300541   0.0000000        18    1
   0.0769231  -0.1385654   0.0000000        19    1
   0.0769231  -0.0470767   0.0000000        20    1
   0.1538462   0.0888240   0.0000000        21    1
   0.1538462   0.1803127   0.0000000        22    1
   0.1538462   0.2718014   0.0000000        23    1
   0.1538462   0.3632901   0.0000000        24    1
   0.1538462   0.4547788   0.0000000        25    1
   0.1538462   0.5462675   0.0000000        26    1
   0.1538462   0.6377562   0.0000000        27    1
   0.1538462  -0.4601082   0.0000000        28    1
   0.1538462  -0.3686195   0.0000000        29    1
   0.1538462  -0.2771308   0.0000000        30    1
   0.1538462  -0.1856421   0.0000000        31    1
   0.1538462  -0.0941534   0.0000000        32    1
   0.1538462  -0.0026647   0.0000000        33    1
   0.2307692   0.1332360   0.0000000        34    1
   0.2307692   0.2247247   0.0000000        35    1
   0.2307692   0.3162134   0.0000000        36    1
   0.2307692   0.4077021   0.0000000        37    1
   0.2307692   0.4991908   0.0000000        38    1
   0.2307692   0.5906795   0.0000000        39    1
   0.2307692   0.6821681   0.0000000        40    1
   0.2307692  -0.4156962   0.0000000        41    1
   0.2307692  -0.3242075   0.0000000        42    1
   0.2307692  -0.2327188   0.0000000        43    1
   0.2307692  -0.1412301   0.0000000        44    1
   0.2307692  -0.0497414   0.0000000        45    1
   0.2307692   0.0417473   0.0000000        46    1
   0.3076923   0.1776480   0.0000000        47    1
   0.3076923   0.2691367   0.0000000        48    1
   0.3076923   0.3606253   0.0000000        49    1
   0.3076923   0.4521140   0.0000000        50    1
   0.3076923   0.5436027   0.0000000        51    1
   0.3076923   0.6350914   0.0000000        52    1
   0.3076923   0.7265801   0.0000000        53    1
   0.3076923  -0.3712842   0.0000000        54    1
   0.3076923  -0.2797955   0.0000000        55    1
   0.3076923  -0.1883068   0.0000000        56    1
   0.3076923  -0.0968181   0.0000000        57    1
   0.3076923  -0.0053294   0.0000000        58    1
   0.3076923   0.0861593   0.0000000        59    1
   0.3846154   0.2220599   0.0000000        60    1
[...]
   0.3846154   0.0390826   0.0000000        71    1
   0.3846154   0.1305712   0.0000000        72    1
   0.4615385   0.2664719   0.0000000        73    1
   0.4615385   0.3579606   0.0000000        74    1
   0.4615385   0.4494493   0.0000000        75    1
   0.4615385   0.5409380   0.0000000        76    1
   0.4615385   0.6324267   0.0000000        77    1
   0.4615385   0.7239154   0.0000000        78    1
   0.4615385   0.8154041   0.0000000        79    1
   0.4615385  -0.2824602   0.0000000        80    1
   0.4615385  -0.1909716   0.0000000        81    1
   0.4615385  -0.0994829   0.0000000        82    1
   0.4615385  -0.0079942   0.0000000        83    1
   0.4615385   0.0834945   0.0000000        84    1
   0.4615385   0.1749832   0.0000000        85    1

     Using Slab Decomposition

     bravais-lattice index     =            0
     lattice parameter (alat)  =       8.3900  a.u.
     unit-cell volume          =    2478.7943 (a.u.)^3
     number of atoms/cell      =            5
     number of atomic types    =            2
     number of electrons       =        78.00
     number of Kohn-Sham states=           60
     kinetic-energy cutoff     =      70.0000  Ry
     charge density cutoff     =     280.0000  Ry
     cutoff for Fock operator  =     280.0000  Ry
     scf convergence threshold =      1.0E-06
     mixing beta               =       0.7000
     number of iterations used =            8  plain     mixing
     Exchange-correlation= B3LYP-V1R
                           (   7  13   9   7   0   0   0)
     EXX-fraction              =        0.20

     celldm(1)=   8.390002  celldm(2)=   0.000000  celldm(3)=   0.000000
     celldm(4)=   0.000000  celldm(5)=   0.000000  celldm(6)=   0.000000

     crystal axes: (cart. coord. in units of alat)
               a(1) = (   1.000000   0.000000   0.000000 )
               a(2) = (  -0.485437   0.840793   0.000000 )
               a(3) = (   0.000000   0.000000   4.991890 )

     reciprocal axes: (cart. coord. in units 2 pi/alat)
               b(1) = (  1.000000  0.577356 -0.000000 )
               b(2) = (  0.000000  1.189353  0.000000 )
               b(3) = (  0.000000 -0.000000  0.200325 )

     PseudoPot. # 1 for Sb read from file:
     /zfs-home/202401017n/pseudos/Sb_ONCV_PBE-1.2.upf
     MD5 check sum: 0417cd6c0fe8ce4611e2b23135f1abd9
     Pseudo is Norm-conserving, Zval = 15.0
     Generated using ONCVPSP code by D. R. Hamann
     Using radial grid of  602 points,  6 beta functions with:
                l(1) =   0
                l(2) =   0
                l(3) =   1
                l(4) =   1
                l(5) =   2
                l(6) =   2

     PseudoPot. # 2 for Te read from file:
     /zfs-home/202401017n/pseudos/Te_ONCV_PBE-1.2.upf
     MD5 check sum: dd4de4dac1e38587f63aaf3700bb29d3
     Pseudo is Norm-conserving, Zval = 16.0
     Generated using ONCVPSP code by D. R. Hamann
     Using radial grid of  602 points,  6 beta functions with:
                l(1) =   0
                l(2) =   0
                l(3) =   1
                l(4) =   1
                l(5) =   2
                l(6) =   2

     atomic species   valence    mass     pseudopotential
     Sb               15.00   121.76000     Sb( 1.00)
     Te               16.00   127.60000     Te( 1.00)

     No symmetry found

                                    s                        frac. trans.

      isym =  1     identity

 cryst.   s( 1) = (     1          0          0      )
                  (     0          1          0      )
                  (     0          0          1      )

 cart.    s( 1) = (  1.0000000  0.0000000  0.0000000 )
                  (  0.0000000  1.0000000  0.0000000 )
                  (  0.0000000  0.0000000  1.0000000 )

   Cartesian axes

     site n.     atom                  positions (alat units)
         1        Sb     tau(   1) = (   0.5867812   0.4172984   2.9417443  )
         2        Te     tau(   2) = (   0.5754457   0.3979752   1.6726131  )
         3        Sb     tau(   3) = (   0.0727921   0.1220272   2.0501240  )
         4        Te     tau(   4) = (   0.0840698   0.1416820   3.3192296  )
         5        Te     tau(   5) = (   0.0870265   0.6902229   2.4959189  )

     Parameters for Dispersion (Grimme-D2) Correction:
       atom      VdW radius       C_6

        Sb         3.555       1333.532
        Te         3.575       1101.101

   Crystallographic axes

     site n.     atom                  positions (cryst. coord.)
         1        Sb     tau(   1) = (  0.8277109  0.4963151  0.5893047  )
         2        Te     tau(   2) = (  0.8052190  0.4733330  0.3350661  )
         3        Sb     tau(   3) = (  0.1432452  0.1451335  0.4106909  )
         4        Te     tau(   4) = (  0.1658708  0.1685099  0.6649244  )
         5        Te     tau(   5) = (  0.4855307  0.8209187  0.4999948  )

     number of k points=    85
                       cart. coord. in units 2pi/alat
        k(    1) = (   0.0000000   0.0000000   0.0000000), wk =   0.0118343
        k(    2) = (   0.0000000   0.0914887   0.0000000), wk =   0.0236686
        k(    3) = (   0.0000000   0.1829774   0.0000000), wk =   0.0236686
        k(    4) = (   0.0000000   0.2744661   0.0000000), wk =   0.0236686
        k(    5) = (   0.0000000   0.3659548   0.0000000), wk =   0.0236686
        k(    6) = (   0.0000000   0.4574435   0.0000000), wk =   0.0236686
        k(    7) = (   0.0000000   0.5489322   0.0000000), wk =   0.0236686
        k(    8) = (   0.0769231   0.0444120   0.0000000), wk =   0.0236686
        k(    9) = (   0.0769231   0.1359007   0.0000000), wk =   0.0236686
        k(   10) = (   0.0769231   0.2273894   0.0000000), wk =   0.0236686
        k(   11) = (   0.0769231   0.3188781   0.0000000), wk =   0.0236686
        k(   12) = (   0.0769231   0.4103668   0.0000000), wk =   0.0236686
        k(   13) = (   0.0769231   0.5018555   0.0000000), wk =   0.0236686
        k(   14) = (   0.0769231   0.5933442   0.0000000), wk =   0.0236686
        k(   15) = (   0.0769231  -0.5045202   0.0000000), wk =   0.0236686
        k(   16) = (   0.0769231  -0.4130315   0.0000000), wk =   0.0236686
        k(   17) = (   0.0769231  -0.3215428   0.0000000), wk =   0.0236686
        k(   18) = (   0.0769231  -0.2300541   0.0000000), wk =   0.0236686
        k(   19) = (   0.0769231  -0.1385654   0.0000000), wk =   0.0236686
        k(   20) = (   0.0769231  -0.0470767   0.0000000), wk =   0.0236686
        k(   21) = (   0.1538462   0.0888240   0.0000000), wk =   0.0236686
        k(   22) = (   0.1538462   0.1803127   0.0000000), wk =   0.0236686
        k(   23) = (   0.1538462   0.2718014   0.0000000), wk =   0.0236686
        k(   24) = (   0.1538462   0.3632901   0.0000000), wk =   0.0236686
        k(   25) = (   0.1538462   0.4547788   0.0000000), wk =   0.0236686
        k(   26) = (   0.1538462   0.5462675   0.0000000), wk =   0.0236686
        k(   27) = (   0.1538462   0.6377562   0.0000000), wk =   0.0236686
        k(   28) = (   0.1538462  -0.4601082   0.0000000), wk =   0.0236686
[...]
        k(   50) = (   0.3076923   0.4521140   0.0000000), wk =   0.0236686
        k(   51) = (   0.3076923   0.5436027   0.0000000), wk =   0.0236686
        k(   52) = (   0.3076923   0.6350914   0.0000000), wk =   0.0236686
        k(   53) = (   0.3076923   0.7265801   0.0000000), wk =   0.0236686
        k(   54) = (   0.3076923  -0.3712842   0.0000000), wk =   0.0236686
        k(   55) = (   0.3076923  -0.2797955   0.0000000), wk =   0.0236686
        k(   56) = (   0.3076923  -0.1883068   0.0000000), wk =   0.0236686
        k(   57) = (   0.3076923  -0.0968181   0.0000000), wk =   0.0236686
        k(   58) = (   0.3076923  -0.0053294   0.0000000), wk =   0.0236686
        k(   59) = (   0.3076923   0.0861593   0.0000000), wk =   0.0236686
        k(   60) = (   0.3846154   0.2220599   0.0000000), wk =   0.0236686
[...]
        k(   71) = (   0.3846154   0.0390826   0.0000000), wk =   0.0236686
        k(   72) = (   0.3846154   0.1305712   0.0000000), wk =   0.0236686
        k(   73) = (   0.4615385   0.2664719   0.0000000), wk =   0.0236686
        k(   74) = (   0.4615385   0.3579606   0.0000000), wk =   0.0236686
        k(   75) = (   0.4615385   0.4494493   0.0000000), wk =   0.0236686
        k(   76) = (   0.4615385   0.5409380   0.0000000), wk =   0.0236686
        k(   77) = (   0.4615385   0.6324267   0.0000000), wk =   0.0236686
        k(   78) = (   0.4615385   0.7239154   0.0000000), wk =   0.0236686
        k(   79) = (   0.4615385   0.8154041   0.0000000), wk =   0.0236686
        k(   80) = (   0.4615385  -0.2824602   0.0000000), wk =   0.0236686
        k(   81) = (   0.4615385  -0.1909716   0.0000000), wk =   0.0236686
        k(   82) = (   0.4615385  -0.0994829   0.0000000), wk =   0.0236686
        k(   83) = (   0.4615385  -0.0079942   0.0000000), wk =   0.0236686
        k(   84) = (   0.4615385   0.0834945   0.0000000), wk =   0.0236686
        k(   85) = (   0.4615385   0.1749832   0.0000000), wk =   0.0236686

                       cryst. coord.
        k(    1) = (   0.0000000   0.0000000   0.0000000), wk =   0.0118343
        k(    2) = (   0.0000000   0.0769231   0.0000000), wk =   0.0236686
        k(    3) = (   0.0000000   0.1538462   0.0000000), wk =   0.0236686
        k(    4) = (   0.0000000   0.2307692   0.0000000), wk =   0.0236686
        k(    5) = (   0.0000000   0.3076923   0.0000000), wk =   0.0236686
        k(    6) = (   0.0000000   0.3846154   0.0000000), wk =   0.0236686
        k(    7) = (   0.0000000   0.4615385   0.0000000), wk =   0.0236686
        k(    8) = (   0.0769231   0.0000000   0.0000000), wk =   0.0236686
        k(    9) = (   0.0769231   0.0769231   0.0000000), wk =   0.0236686
        k(   10) = (   0.0769231   0.1538462   0.0000000), wk =   0.0236686
        k(   11) = (   0.0769231   0.2307692   0.0000000), wk =   0.0236686
        k(   12) = (   0.0769231   0.3076923   0.0000000), wk =   0.0236686
        k(   13) = (   0.0769231   0.3846154   0.0000000), wk =   0.0236686
        k(   14) = (   0.0769231   0.4615385   0.0000000), wk =   0.0236686
        k(   15) = (   0.0769231  -0.4615385   0.0000000), wk =   0.0236686
        k(   16) = (   0.0769231  -0.3846154   0.0000000), wk =   0.0236686
        k(   17) = (   0.0769231  -0.3076923   0.0000000), wk =   0.0236686
        k(   18) = (   0.0769231  -0.2307692   0.0000000), wk =   0.0236686
        k(   19) = (   0.0769231  -0.1538462   0.0000000), wk =   0.0236686
        k(   20) = (   0.0769231  -0.0769231   0.0000000), wk =   0.0236686
        k(   21) = (   0.1538462   0.0000000   0.0000000), wk =   0.0236686
        k(   22) = (   0.1538462   0.0769231   0.0000000), wk =   0.0236686
        k(   23) = (   0.1538462   0.1538462   0.0000000), wk =   0.0236686
        k(   24) = (   0.1538462   0.2307692   0.0000000), wk =   0.0236686
        k(   25) = (   0.1538462   0.3076923   0.0000000), wk =   0.0236686
        k(   26) = (   0.1538462   0.3846154   0.0000000), wk =   0.0236686
        k(   27) = (   0.1538462   0.4615385   0.0000000), wk =   0.0236686
        k(   28) = (   0.1538462  -0.4615385   0.0000000), wk =   0.0236686
        k(   29) = (   0.1538462  -0.3846154   0.0000000), wk =   0.0236686
        k(   30) = (   0.1538462  -0.3076923   0.0000000), wk =   0.0236686
        k(   31) = (   0.1538462  -0.2307692   0.0000000), wk =   0.0236686
        k(   32) = (   0.1538462  -0.1538462   0.0000000), wk =   0.0236686
        k(   33) = (   0.1538462  -0.0769231   0.0000000), wk =   0.0236686
        k(   34) = (   0.2307692  -0.0000000   0.0000000), wk =   0.0236686
        k(   35) = (   0.2307692   0.0769231   0.0000000), wk =   0.0236686
        k(   36) = (   0.2307692   0.1538462   0.0000000), wk =   0.0236686
        k(   37) = (   0.2307692   0.2307692   0.0000000), wk =   0.0236686
        k(   38) = (   0.2307692   0.3076923   0.0000000), wk =   0.0236686
        k(   39) = (   0.2307692   0.3846154   0.0000000), wk =   0.0236686
        k(   40) = (   0.2307692   0.4615385   0.0000000), wk =   0.0236686
        k(   41) = (   0.2307692  -0.4615385   0.0000000), wk =   0.0236686
        k(   42) = (   0.2307692  -0.3846154   0.0000000), wk =   0.0236686
        k(   43) = (   0.2307692  -0.3076923   0.0000000), wk =   0.0236686
        k(   44) = (   0.2307692  -0.2307692   0.0000000), wk =   0.0236686
        k(   45) = (   0.2307692  -0.1538462   0.0000000), wk =   0.0236686
        k(   46) = (   0.2307692  -0.0769231   0.0000000), wk =   0.0236686
        k(   47) = (   0.3076923   0.0000000   0.0000000), wk =   0.0236686
        k(   48) = (   0.3076923   0.0769231   0.0000000), wk =   0.0236686
        k(   49) = (   0.3076923   0.1538462   0.0000000), wk =   0.0236686
        k(   50) = (   0.3076923   0.2307692   0.0000000), wk =   0.0236686
        k(   51) = (   0.3076923   0.3076923   0.0000000), wk =   0.0236686
        k(   52) = (   0.3076923   0.3846154   0.0000000), wk =   0.0236686
        k(   53) = (   0.3076923   0.4615385   0.0000000), wk =   0.0236686
        k(   54) = (   0.3076923  -0.4615385   0.0000000), wk =   0.0236686
        k(   55) = (   0.3076923  -0.3846154   0.0000000), wk =   0.0236686
        k(   56) = (   0.3076923  -0.3076923   0.0000000), wk =   0.0236686
        k(   57) = (   0.3076923  -0.2307692   0.0000000), wk =   0.0236686
        k(   58) = (   0.3076923  -0.1538462   0.0000000), wk =   0.0236686
        k(   59) = (   0.3076923  -0.0769231   0.0000000), wk =   0.0236686
        k(   60) = (   0.3846154  -0.0000000   0.0000000), wk =   0.0236686
[...]
        k(   71) = (   0.3846154  -0.1538462   0.0000000), wk =   0.0236686
        k(   72) = (   0.3846154  -0.0769231   0.0000000), wk =   0.0236686
        k(   73) = (   0.4615385  -0.0000000   0.0000000), wk =   0.0236686
        k(   74) = (   0.4615385   0.0769231   0.0000000), wk =   0.0236686
        k(   75) = (   0.4615385   0.1538462   0.0000000), wk =   0.0236686
        k(   76) = (   0.4615385   0.2307692   0.0000000), wk =   0.0236686
        k(   77) = (   0.4615385   0.3076923   0.0000000), wk =   0.0236686
        k(   78) = (   0.4615385   0.3846154   0.0000000), wk =   0.0236686
        k(   79) = (   0.4615385   0.4615385   0.0000000), wk =   0.0236686
        k(   80) = (   0.4615385  -0.4615385   0.0000000), wk =   0.0236686
        k(   81) = (   0.4615385  -0.3846154   0.0000000), wk =   0.0236686
        k(   82) = (   0.4615385  -0.3076923   0.0000000), wk =   0.0236686
        k(   83) = (   0.4615385  -0.2307692   0.0000000), wk =   0.0236686
        k(   84) = (   0.4615385  -0.1538462   0.0000000), wk =   0.0236686
        k(   85) = (   0.4615385  -0.0769231   0.0000000), wk =   0.0236686

     Initial potential from superposition of free atoms

     starting charge      77.7638, renormalised to      78.0000

     negative rho (up, down):  6.597E-04 0.000E+00
     Starting wfcs are random

     Self-consistent Calculation

     iteration #  1     ecut=    70.00 Ry     beta= 0.70
     Davidson diagonalization with overlap

     ethr =  1.00E-02,  avg # of iterations = 10.2

     Threshold (ethr) on eigenvalues was too large:
     Diagonalizing with lowered threshold

     Davidson diagonalization with overlap

[...]

     negative rho (up, down):  4.868E-05 0.000E+00

     total energy              =    -807.02588981 Ry
     estimated scf accuracy    <       0.10671998 Ry

[...]

     negative rho (up, down):  1.178E-06 0.000E+00

[...]

     End of self-consistent calculation

          k = 0.0000 0.0000 0.0000 ( 24437 PWs)   bands (ev):

   -34.7232 -34.7230 -34.7224 -34.7220 -34.6911 -34.6906 -34.6853 -34.6852
   -34.6750 -34.6747 -34.5928 -34.5885 -34.5781 -34.5485 -34.5476 -27.5371
   -27.5365 -27.5349 -27.5345 -27.5259 -27.5256 -27.5252 -27.5250 -27.5219
   -27.5217 -10.6113 -10.0818  -9.0217  -6.3075  -4.9795  -0.1242   0.0628
     0.2962   0.3001   0.4774   0.7950   0.9264   1.0627   1.2849   2.2709
     2.7528   2.8510   3.6670   3.8357   3.9152   6.3695   6.5583   7.2207
     7.6751   7.7098   8.0858   8.5688   8.8787   8.9211   8.9555   9.3734
     9.7048   9.8520  10.2976  10.3145

     occupation numbers
     1.0000   1.0000   1.0000   1.0000   1.0000   1.0000   1.0000   1.0000
     1.0000   1.0000   1.0000   1.0000   1.0000   1.0000   1.0000   1.0000
     1.0000   1.0000   1.0000   1.0000   1.0000   1.0000   1.0000   1.0000
     1.0000   1.0000   1.0000   1.0000   1.0000   1.0000   1.0000   1.0000
     1.0000   1.0000   1.0000   1.0000   1.0000   1.0000   1.0000   0.0000
     0.0000   0.0000   0.0000   0.0000   0.0000   0.0000   0.0000   0.0000
     0.0000   0.0000   0.0000   0.0000   0.0000   0.0000   0.0000   0.0000
     0.0000   0.0000   0.0000   0.0000

[...]

     highest occupied, lowest unoccupied level (ev):     1.7484    2.2709

!    total energy              =    -807.07928478 Ry
     estimated scf accuracy    <          4.6E-09 Ry

     convergence has been achieved in  10 iterations

     Using ACE for calculation of exact exchange

     EXX: now go back to refine exchange calculation

[...]

     c_bands:  1 eigenvalues not converged
     c_bands:  2 eigenvalues not converged
     c_bands:  2 eigenvalues not converged
     c_bands:  1 eigenvalues not converged
     c_bands:  2 eigenvalues not converged
     c_bands:  1 eigenvalues not converged
     c_bands:  2 eigenvalues not converged
     c_bands:  2 eigenvalues not converged
     c_bands:  3 eigenvalues not converged
     c_bands:  2 eigenvalues not converged
     c_bands:  2 eigenvalues not converged
     c_bands:  2 eigenvalues not converged
     c_bands:  2 eigenvalues not converged
     c_bands:  2 eigenvalues not converged
     c_bands:  2 eigenvalues not converged
     c_bands:  3 eigenvalues not converged
     c_bands:  2 eigenvalues not converged
     c_bands:  2 eigenvalues not converged
     c_bands:  2 eigenvalues not converged
     c_bands:  2 eigenvalues not converged
     c_bands:  2 eigenvalues not converged
     c_bands:  2 eigenvalues not converged
     c_bands:  2 eigenvalues not converged
     c_bands:  2 eigenvalues not converged
     c_bands:  2 eigenvalues not converged
     c_bands:  1 eigenvalues not converged
     c_bands:  1 eigenvalues not converged
     c_bands:  2 eigenvalues not converged
     c_bands:  3 eigenvalues not converged
     c_bands:  2 eigenvalues not converged
     c_bands:  2 eigenvalues not converged
     c_bands:  2 eigenvalues not converged
     c_bands:  3 eigenvalues not converged
     c_bands:  1 eigenvalues not converged
     c_bands:  2 eigenvalues not converged
     c_bands:  3 eigenvalues not converged
     c_bands:  3 eigenvalues not converged
     c_bands:  1 eigenvalues not converged
     c_bands:  1 eigenvalues not converged
     c_bands:  1 eigenvalues not converged
     c_bands:  3 eigenvalues not converged
     c_bands:  3 eigenvalues not converged
     c_bands:  2 eigenvalues not converged
     c_bands:  1 eigenvalues not converged
     c_bands:  2 eigenvalues not converged
     c_bands:  2 eigenvalues not converged
     c_bands:  1 eigenvalues not converged
     c_bands:  2 eigenvalues not converged
     c_bands:  2 eigenvalues not converged
     c_bands:  1 eigenvalues not converged
     c_bands:  1 eigenvalues not converged
     c_bands:  1 eigenvalues not converged
     c_bands:  1 eigenvalues not converged
     c_bands:  1 eigenvalues not converged
     c_bands:  3 eigenvalues not converged
     c_bands:  2 eigenvalues not converged
     c_bands:  2 eigenvalues not converged
     c_bands:  2 eigenvalues not converged
     c_bands:  2 eigenvalues not converged
     c_bands:  2 eigenvalues not converged
[...]
     c_bands:  1 eigenvalues not converged
     c_bands:  2 eigenvalues not converged
     c_bands:  3 eigenvalues not converged
     c_bands:  2 eigenvalues not converged
     c_bands:  1 eigenvalues not converged
     c_bands:  1 eigenvalues not converged
     c_bands:  1 eigenvalues not converged
     c_bands:  1 eigenvalues not converged
     c_bands:  2 eigenvalues not converged
     c_bands:  3 eigenvalues not converged
     c_bands:  2 eigenvalues not converged
     c_bands:  2 eigenvalues not converged
     c_bands:  3 eigenvalues not converged
     c_bands:  2 eigenvalues not converged
     c_bands:  2 eigenvalues not converged
     ethr =  1.97E-09,  avg # of iterations = 20.0

[...]

     Using ACE for calculation of exact exchange
     ACE projected onto    60 (nbndproj) and applied to    60 (nbnd) bands
     BEWARE: negative dexx:  -0.417E-04

     total energy              =    -804.24297208 Ry
     Harris-Foulkes estimate   =    -804.24297212 Ry
     est. exchange err (dexx)  =       0.00004173 Ry
     - averaged Fock potential =      27.26407797 Ry
     + Fock energy (ACE)       =     -13.64813423 Ry

[...]

     total energy              =    -804.24347627 Ry
     Harris-Foulkes estimate   =    -804.24347641 Ry
     est. exchange err (dexx)  =       0.00000658 Ry
     - averaged Fock potential =      27.29893186 Ry
     + Fock energy (ACE)       =     -13.64994870 Ry

     EXX: now go back to refine exchange calculation

     Self-consistent Calculation

[...]

     c_bands:  1 eigenvalues not converged
     ethr =  7.72E-09,  avg # of iterations = 10.1

[...]

     total energy              =    -804.24348096 Ry
     estimated scf accuracy    <       0.00000262 Ry

     iteration #  4     ecut=    70.00 Ry     beta= 0.70
     Davidson diagonalization with overlap

     ethr =  3.37E-09,  avg # of iterations =  6.9

     End of self-consistent calculation

[...]

          k = 0.4615 0.1750 0.0000 ( 24566 PWs)   bands (ev):

   -35.6671 -35.6667 -35.6553 -35.6547 -35.6238 -35.6231 -35.6220 -35.6215
   -35.6005 -35.6000 -35.2356 -35.2290 -35.2233 -35.1844 -35.1784 -28.6147
   -28.6134 -28.6045 -28.6038 -28.5972 -28.5969 -28.5848 -28.5843 -28.5714
   -28.5709 -10.7554 -10.5460 -10.1178  -8.6663  -8.1483  -3.9564  -2.7053
    -2.5334  -2.2722  -1.6366  -1.1651   0.1700   0.4045   0.9729   3.3852
     3.4083   3.8324   5.3934   5.6413   6.2882   6.5427   7.8569   8.4049
     8.8191   9.3413   9.6127   9.6784  10.2638  10.4636  10.8602  10.9050
    11.3984  11.6288  11.9781  12.2622

     occupation numbers
     1.0000   1.0000   1.0000   1.0000   1.0000   1.0000   1.0000   1.0000
     1.0000   1.0000   1.0000   1.0000   1.0000   1.0000   1.0000   1.0000
     1.0000   1.0000   1.0000   1.0000   1.0000   1.0000   1.0000   1.0000
     1.0000   1.0000   1.0000   1.0000   1.0000   1.0000   1.0000   1.0000
     1.0000   1.0000   1.0000   1.0000   1.0000   1.0000   1.0000   0.0000
     0.0000   0.0000   0.0000   0.0000   0.0000   0.0000   0.0000   0.0000
     0.0000   0.0000   0.0000   0.0000   0.0000   0.0000   0.0000   0.0000
     0.0000   0.0000   0.0000   0.0000

     highest occupied, lowest unoccupied level (ev):     1.2931    2.4095

!    total energy              =    -804.24348118 Ry
     estimated scf accuracy    <       0.00000023 Ry

     convergence has been achieved in   4 iterations

     Using ACE for calculation of exact exchange
     ACE projected onto    60 (nbndproj) and applied to    60 (nbnd) bands
     BEWARE: negative dexx:  -0.669E-06

!!   total energy              =    -804.24348052 Ry
     Harris-Foulkes estimate   =    -804.24348070 Ry
     est. exchange err (dexx)  =       0.00000067 Ry
     - averaged Fock potential =      27.29983585 Ry
     + Fock energy (ACE)       =     -13.64988648 Ry

     EXX self-consistency reached

     Writing all to output data dir tmp/Sb2Te3-uatsx-c1-3.0.save/ :
     XML data file, charge density, pseudopotentials, collected wavefunctions

     General routines

     Parallel routines

     EXX routines

   This run was terminated on:  23:45: 0  14May2025

   JOB DONE.